     *** ECHO OF THE INPUT DATA STARTS ***

    Example 9.6.5: BENDING OF A CANTILEVER BEAM UNDER UDL (5 EIGHT-NODE)        
    9   3   2   1   0   1   2   1             NPE,NGPF,NGPR,MESH,NPRNT,IGRAD,NON
                                                                                
    5   1                                NX,NY                                  
    0.0  2.0  2.0  2.0  2.0  2.0         X0,(DX(I),I=1,NX)                      
    0.0  1.0                             Y0,(DY(I),I=1,NY)                      
                                                                                
    6                                    NSPV and next lines ISPV, VSPV         
    1 1  1 2  12 1  12 2  23 1  23 2     ISPV                                   
    0.0  0.0  0.0   0.0   0.0   0.0      VSPV                                   
                                                                                
    22                                   NSSV and next lines ISSV, VSSV         
     1 2   2 2   3 2   4 2   5 2   6 2   7 2   8 2   9 2  10 2  11 2            
    23 2  24 2  25 2  26 2  27 2  28 2  29 2  30 2  31 2  32 2  33 2  ISSV      
    8.333 33.333 16.667 33.333 16.667 33.333 16.667 33.333 16.667 33.333 8.333  
    8.333 33.333 16.667 33.333 16.667 33.333 16.667 33.333 16.667 33.333 8.333  
                                                                                
    2                                    LFORM                                  
    10.0  1.0  0.1                       A,B,THIKNS                             
    1.2E+07  0.3                         E,ANU                                  
                                                                                
    22   10   0.001   0.0                NLS,ITMAX,EPS,REX                      
    -1.0 -1.0 -1.0 -1.0 -1.0 -1.0 -1.0 -1.0 -1.0 -1.0                           
    -1.0 -1.0 -1.0 -1.0 -1.0 -1.0 -1.0 -1.0 -1.0 -1.0                           
    -1.0 -1.0                            DP(I)                                  

     **** ECHO OF THE INPUT DATA ENDS ****

    Example 9.6.5: BENDING OF A CANTILEVER BEAM UNDER UDL (5 EIGHT-NODE)        
  ______________________________________________________________________

            OUTPUT FROM PROGRAM  *FEM2DUNSYM*  BY J.N. REDDY
  ______________________________________________________________________


     NONLINEAR ANALYSIS DATA:

        Number of load steps, NLS ...............=  22
        Max. no. of iterations allowed, ITMAX ...=  10
        Type of iter. method used (1: DI; >1 NR).=   2
        Error tolerance, EPS ....................=  0.1000E-02
        Acceleration parameter, REX .............=  0.0000E+00


        *** A mesh of QUADRILATERALS is chosen by user ***

     FINITE ELEMENT MESH INFORMATION:

        Element type: 1 = LINEAR; 2=QUADRATIC)...=   2
        Number of nodes per element, NPE ........=   9
        No. of primary deg. of freedom/node, NDF =   2
        Number of elements in the mesh, NEM .....=   5
        Number of nodes in the mesh, NNM ........=  33
        Number of equations to be solved, NEQ ...=  66
        Half bandwidth of the matrix GLK, NHBW ..=  50
        Mesh subdivisions, NX and NY ............=   5   1

        No. of specified PRIMARY variables, NSPV =   6
        No. of speci.  SECONDARY variables, NSSV =  22

      Node  DOF     Value

         1   2   0.83330E+01
         2   2   0.33333E+02
         3   2   0.16667E+02
         4   2   0.33333E+02
         5   2   0.16667E+02
         6   2   0.33333E+02
         7   2   0.16667E+02
         8   2   0.33333E+02
         9   2   0.16667E+02
        10   2   0.33333E+02
        11   2   0.83330E+01
        23   2   0.83330E+01
        24   2   0.33333E+02
        25   2   0.16667E+02
        26   2   0.33333E+02
        27   2   0.16667E+02
        28   2   0.33333E+02
        29   2   0.16667E+02
        30   2   0.33333E+02
        31   2   0.16667E+02
        32   2   0.33333E+02
        33   2   0.83330E+01
  ______________________________________________________________________

     Node   x-coord.   y-coord.    Speci. primary & secondary variables
                                      (0, unspecified; >0, specified)
                                         Primary DOF  Secondary DOF
  ______________________________________________________________________

       1  0.0000E+00  0.0000E+00            1    2        0    2
       2  0.1000E+01  0.0000E+00            0    0        0    2
       3  0.2000E+01  0.0000E+00            0    0        0    2
       4  0.3000E+01  0.0000E+00            0    0        0    2
       5  0.4000E+01  0.0000E+00            0    0        0    2
       6  0.5000E+01  0.0000E+00            0    0        0    2
       7  0.6000E+01  0.0000E+00            0    0        0    2
       8  0.7000E+01  0.0000E+00            0    0        0    2
       9  0.8000E+01  0.0000E+00            0    0        0    2
      10  0.9000E+01  0.0000E+00            0    0        0    2
      11  0.1000E+02  0.0000E+00            0    0        0    2
      12  0.0000E+00  0.5000E+00            1    2        0    0
      13  0.1000E+01  0.5000E+00            0    0        0    0
      14  0.2000E+01  0.5000E+00            0    0        0    0
      15  0.3000E+01  0.5000E+00            0    0        0    0
      16  0.4000E+01  0.5000E+00            0    0        0    0
      17  0.5000E+01  0.5000E+00            0    0        0    0
      18  0.6000E+01  0.5000E+00            0    0        0    0
      19  0.7000E+01  0.5000E+00            0    0        0    0
      20  0.8000E+01  0.5000E+00            0    0        0    0
      21  0.9000E+01  0.5000E+00            0    0        0    0
      22  0.1000E+02  0.5000E+00            0    0        0    0
      23  0.0000E+00  0.1000E+01            1    2        0    2
      24  0.1000E+01  0.1000E+01            0    0        0    2
      25  0.2000E+01  0.1000E+01            0    0        0    2
      26  0.3000E+01  0.1000E+01            0    0        0    2
      27  0.4000E+01  0.1000E+01            0    0        0    2
      28  0.5000E+01  0.1000E+01            0    0        0    2
      29  0.6000E+01  0.1000E+01            0    0        0    2
      30  0.7000E+01  0.1000E+01            0    0        0    2
      31  0.8000E+01  0.1000E+01            0    0        0    2
      32  0.9000E+01  0.1000E+01            0    0        0    2
      33  0.1000E+02  0.1000E+01            0    0        0    2
  ______________________________________________________________________


     NUMERICAL INTEGRATION DATA (Gauss Points):

        Full quadrature (NGPF x NGPF) rule, NGPF =   3
        Reduced quadrature (NGPR x NGPR),   NGPR =   2


        *** The NEWTON iteration scheme is used ***

     Iteration No.  1     Error (root-mean-square value)=  0.1000E+01

     Iteration No.  2     Error (root-mean-square value)=  0.3283E-01

     Iteration No.  3     Error (root-mean-square value)=  0.3914E-03

     S O L U T I O N :


     LOAD, FS................................= -0.1000E+01
  __________________________________________________

     Node    x-coord.      y-coord.     U      V  
  __________________________________________________

       1   0.00000E+00   0.00000E+00   0.00000E+00   0.00000E+00
       2   0.98926E+00  -0.12438E-01  -0.10743E-01  -0.12438E-01
       3   0.19795E+01  -0.43796E-01  -0.20534E-01  -0.43796E-01
       4   0.29716E+01  -0.91431E-01  -0.28433E-01  -0.91431E-01
       5   0.39643E+01  -0.15108E+00  -0.35679E-01  -0.15108E+00
       6   0.49583E+01  -0.21982E+00  -0.41677E-01  -0.21982E+00
       7   0.59528E+01  -0.29479E+00  -0.47161E-01  -0.29479E+00
       8   0.69483E+01  -0.37383E+00  -0.51744E-01  -0.37383E+00
       9   0.79441E+01  -0.45515E+00  -0.55928E-01  -0.45515E+00
      10   0.89404E+01  -0.53750E+00  -0.59592E-01  -0.53750E+00
      11   0.99369E+01  -0.62012E+00  -0.63086E-01  -0.62012E+00
      12   0.00000E+00   0.50000E+00   0.00000E+00   0.00000E+00
      13   0.99999E+00   0.48831E+00  -0.79139E-05  -0.11688E-01
      14   0.19995E+01   0.45625E+00  -0.45664E-03  -0.43750E-01
      15   0.29984E+01   0.40832E+00  -0.15623E-02  -0.91676E-01
      16   0.39967E+01   0.34819E+00  -0.33410E-02  -0.15181E+00
      17   0.49943E+01   0.27913E+00  -0.57020E-02  -0.22087E+00
      18   0.59915E+01   0.20386E+00  -0.85214E-02  -0.29614E+00
      19   0.69884E+01   0.12465E+00  -0.11650E-01  -0.37535E+00
      20   0.79850E+01   0.43216E-01  -0.14962E-01  -0.45678E+00
      21   0.89816E+01  -0.39185E-01  -0.18358E-01  -0.53919E+00
      22   0.99782E+01  -0.12182E+00  -0.21776E-01  -0.62182E+00
      23   0.00000E+00   0.10000E+01   0.00000E+00   0.00000E+00
      24   0.10107E+01   0.98731E+00   0.10695E-01  -0.12694E-01
      25   0.20196E+01   0.95536E+00   0.19573E-01  -0.44641E-01
      26   0.30253E+01   0.90712E+00   0.25254E-01  -0.92883E-01
      27   0.40290E+01   0.84681E+00   0.28959E-01  -0.15319E+00
      28   0.50302E+01   0.77759E+00   0.30237E-01  -0.22241E+00
      29   0.60301E+01   0.70221E+00   0.30098E-01  -0.29779E+00
      30   0.70284E+01   0.62295E+00   0.28431E-01  -0.37705E+00
      31   0.80260E+01   0.54149E+00   0.25999E-01  -0.45851E+00
      32   0.90229E+01   0.45910E+00   0.22876E-01  -0.54090E+00
      33   0.10020E+02   0.37646E+00   0.19536E-01  -0.62354E+00
  __________________________________________________

  _____________________________________________________________________________

            x-coord.     y-coord.     SigmaXX     SigmaYY     SigmaXY
                                        SXX         SYY          SXY
  _____________________________________________________________________________

    1     0.41998E+00  0.20871E+00 -0.77569E+05 -0.88321E+04 -0.41034E+04
                                   -0.76449E+05 -0.85698E+04 -0.47367E+04
    1     0.42541E+00  0.78603E+00  0.77595E+05  0.84583E+04 -0.54910E+04
                                    0.78767E+05  0.87210E+04 -0.48532E+04
    1     0.15677E+01  0.18351E+00 -0.62900E+05  0.31615E+04 -0.20960E+04
                                   -0.61924E+05  0.32653E+04 -0.42411E+04
    1     0.15865E+01  0.76054E+00  0.62938E+05 -0.31702E+04 -0.63313E+04
                                    0.64084E+05 -0.31868E+04 -0.41653E+04
    2     0.24085E+01  0.14896E+00 -0.48030E+05 -0.74276E+03 -0.16222E+04
                                   -0.47351E+05 -0.83503E+03 -0.37943E+04
    2     0.24351E+01  0.72568E+00  0.47750E+05  0.83496E+03 -0.59641E+04
                                    0.48647E+05  0.55185E+03 -0.37773E+04
    2     0.35574E+01  0.86808E-01 -0.37234E+05  0.47127E+03 -0.93536E+03
                                   -0.36721E+05  0.32174E+03 -0.31983E+04
    2     0.35923E+01  0.66310E+00  0.36964E+05  0.29801E+03 -0.54582E+04
                                    0.37761E+05 -0.12197E+03 -0.32112E+04
    3     0.43987E+01  0.31654E-01 -0.25733E+05  0.48378E+03 -0.10436E+04
                                   -0.25344E+05  0.26970E+03 -0.28109E+04
    3     0.44380E+01  0.60766E+00  0.25376E+05  0.22349E+02 -0.45138E+04
                                    0.26004E+05 -0.42145E+03 -0.27536E+04
    3     0.55484E+01 -0.51491E-01 -0.18122E+05  0.15783E+03 -0.84261E+03
                                   -0.17829E+05 -0.48530E+02 -0.22041E+04
    3     0.55918E+01  0.52422E+00  0.17824E+05  0.54588E+03 -0.35420E+04
                                    0.18323E+05  0.13669E+03 -0.22061E+04
    4     0.63901E+01 -0.11717E+00 -0.10405E+05  0.56210E+03 -0.95537E+03
                                   -0.10165E+05  0.35305E+03 -0.18032E+04
    4     0.64355E+01  0.45839E+00  0.10128E+05 -0.61891E+02 -0.25940E+04
                                    0.10495E+05 -0.39652E+03 -0.17631E+04
    4     0.75403E+01 -0.20983E+00 -0.58417E+04  0.15157E+03 -0.73880E+03
                                   -0.56754E+04 -0.52721E+01 -0.12148E+04
    4     0.75873E+01  0.36560E+00  0.56513E+04  0.25659E+03 -0.16591E+04
                                    0.58920E+04  0.26022E+02 -0.11999E+04
    5     0.83825E+01 -0.27929E+00 -0.19601E+04  0.37190E+03 -0.61776E+03
                                   -0.18420E+04  0.25536E+03 -0.80049E+03
    5     0.84300E+01  0.29611E+00  0.18316E+04 -0.11660E+03 -0.94397E+03
                                    0.19743E+04 -0.25763E+03 -0.77157E+03
    5     0.95332E+01 -0.37456E+00 -0.40927E+03  0.14681E+03 -0.17849E+03
                                   -0.37602E+03  0.11366E+03 -0.22183E+03
    5     0.95809E+01  0.20082E+00  0.37467E+03 -0.85568E+02 -0.24057E+03
                                    0.41120E+03 -0.12201E+03 -0.19940E+03
  _____________________________________________________________________________


     Iteration No.  1     Error (root-mean-square value)=  0.4989E+00

     Iteration No.  2     Error (root-mean-square value)=  0.1597E-01

     Iteration No.  3     Error (root-mean-square value)=  0.2438E-02

     Iteration No.  4     Error (root-mean-square value)=  0.5380E-04

     S O L U T I O N :


     LOAD, FS................................= -0.2000E+01
  __________________________________________________

     Node    x-coord.      y-coord.     U      V  
  __________________________________________________

       1   0.00000E+00   0.00000E+00   0.00000E+00   0.00000E+00
       2   0.97859E+00  -0.24514E-01  -0.21412E-01  -0.24514E-01
       3   0.19583E+01  -0.86279E-01  -0.41741E-01  -0.86279E-01
       4   0.29404E+01  -0.18030E+00  -0.59565E-01  -0.18030E+00
       5   0.39226E+01  -0.29801E+00  -0.77361E-01  -0.29801E+00
       6   0.49062E+01  -0.43382E+00  -0.93834E-01  -0.43382E+00
       7   0.58898E+01  -0.58196E+00  -0.11017E+00  -0.58196E+00
       8   0.68747E+01  -0.73825E+00  -0.12534E+00  -0.73825E+00
       9   0.78599E+01  -0.89910E+00  -0.14009E+00  -0.89910E+00
      10   0.88460E+01  -0.10621E+01  -0.15398E+00  -0.10621E+01
      11   0.98324E+01  -0.12256E+01  -0.16759E+00  -0.12256E+01
      12   0.00000E+00   0.50000E+00   0.00000E+00   0.00000E+00
      13   0.99997E+00   0.47672E+00  -0.31384E-04  -0.23278E-01
      14   0.19982E+01   0.41298E+00  -0.18064E-02  -0.87025E-01
      15   0.29938E+01   0.31778E+00  -0.61754E-02  -0.18222E+00
      16   0.39868E+01   0.19846E+00  -0.13196E-01  -0.30154E+00
      17   0.49775E+01   0.61546E-01  -0.22508E-01  -0.43845E+00
      18   0.59664E+01  -0.87561E-01  -0.33619E-01  -0.58756E+00
      19   0.69541E+01  -0.24442E+00  -0.45942E-01  -0.74442E+00
      20   0.79410E+01  -0.40564E+00  -0.58988E-01  -0.90564E+00
      21   0.89276E+01  -0.56875E+00  -0.72359E-01  -0.10687E+01
      22   0.99142E+01  -0.73231E+00  -0.85820E-01  -0.12323E+01
      23   0.00000E+00   0.10000E+01   0.00000E+00   0.00000E+00
      24   0.10212E+01   0.97447E+00   0.21224E-01  -0.25527E-01
      25   0.20379E+01   0.91038E+00   0.37939E-01  -0.89619E-01
      26   0.30470E+01   0.81397E+00   0.47000E-01  -0.18603E+00
      27   0.40508E+01   0.69365E+00   0.50820E-01  -0.30635E+00
      28   0.50487E+01   0.55596E+00   0.48678E-01  -0.44404E+00
      29   0.60428E+01   0.40623E+00   0.42850E-01  -0.59377E+00
      30   0.70334E+01   0.24905E+00   0.33401E-01  -0.75095E+00
      31   0.80221E+01   0.87652E-01   0.22091E-01  -0.91235E+00
      32   0.90093E+01  -0.75486E-01   0.92588E-02  -0.10755E+01
      33   0.99960E+01  -0.23906E+00  -0.40472E-02  -0.12391E+01
  __________________________________________________

  _____________________________________________________________________________

            x-coord.     y-coord.     SigmaXX     SigmaYY     SigmaXY
                                        SXX         SYY          SXY
  _____________________________________________________________________________

    1     0.41744E+00  0.20615E+00 -0.15419E+06 -0.17984E+05 -0.69002E+04
                                   -0.14985E+06 -0.16951E+05 -0.93964E+04
    1     0.42824E+00  0.78335E+00  0.15429E+06  0.16509E+05 -0.12389E+05
                                    0.15904E+06  0.17546E+05 -0.98568E+04
    1     0.15578E+01  0.15629E+00 -0.12450E+06  0.58684E+04 -0.93669E+02
                                   -0.12097E+06  0.65054E+04 -0.85086E+04
    1     0.15952E+01  0.73237E+00  0.12464E+06 -0.58813E+04 -0.16788E+05
                                    0.12951E+06 -0.61890E+04 -0.82091E+04
    2     0.23928E+01  0.87934E-01 -0.95059E+05 -0.19673E+04  0.92045E+03
                                   -0.92790E+05 -0.19753E+04 -0.75887E+04
    2     0.24458E+01  0.66279E+00  0.93931E+05  0.23552E+04 -0.16144E+05
                                    0.97906E+05  0.85312E+03 -0.75208E+04
    2     0.35329E+01 -0.35031E-01 -0.73325E+05  0.89537E+03  0.25435E+04
                                   -0.71850E+05  0.82474E+03 -0.63455E+04
    2     0.36020E+01  0.53816E+00  0.72259E+05  0.21463E+04 -0.15159E+05
                                    0.75955E+05 -0.35719E+02 -0.63963E+04
    3     0.43668E+01 -0.14414E+00 -0.50690E+05  0.78321E+03  0.12751E+04
                                   -0.49607E+05  0.37501E+03 -0.56399E+04
    3     0.44446E+01  0.42792E+00  0.49274E+05  0.12236E+04 -0.12272E+05
                                    0.52212E+05 -0.97422E+03 -0.54132E+04
    3     0.55056E+01 -0.30863E+00 -0.35599E+05  0.40895E+03  0.97967E+03
                                   -0.34846E+05 -0.11549E+02 -0.43693E+04
    3     0.55917E+01  0.26227E+00  0.34439E+05  0.23558E+04 -0.95269E+04
                                    0.36798E+05  0.35833E+03 -0.43767E+04
    4     0.63389E+01 -0.43856E+00 -0.20508E+05  0.12363E+04 -0.28205E+03
                                   -0.19810E+05  0.65481E+03 -0.36127E+04
    4     0.64288E+01  0.13174E+00  0.19427E+05  0.73076E+03 -0.66529E+04
                                    0.21114E+05 -0.82604E+03 -0.34541E+04
    4     0.74775E+01 -0.62192E+00 -0.11534E+05  0.48257E+03 -0.53921E+03
                                   -0.11025E+05  0.95340E+01 -0.24205E+04
    4     0.75704E+01 -0.52102E-01  0.10796E+05  0.11169E+04 -0.41126E+04
                                    0.11882E+05  0.71742E+02 -0.23616E+04
    5     0.83110E+01 -0.75936E+00 -0.39320E+04  0.91307E+03 -0.88223E+03
                                   -0.35162E+04  0.50320E+03 -0.16135E+04
    5     0.84050E+01 -0.18971E+00  0.34330E+04  0.87764E+02 -0.21502E+04
                                    0.40397E+04 -0.51219E+03 -0.14991E+04
    5     0.94500E+01 -0.94792E+00 -0.83397E+03  0.34062E+03 -0.28724E+03
                                   -0.70966E+03  0.21667E+03 -0.46136E+03
    5     0.95444E+01 -0.37834E+00  0.69890E+03 -0.10051E+03 -0.52982E+03
                                    0.84872E+03 -0.24995E+03 -0.37252E+03
  _____________________________________________________________________________


     Iteration No.  1     Error (root-mean-square value)=  0.3296E+00

     Iteration No.  2     Error (root-mean-square value)=  0.1018E-01

     Iteration No.  3     Error (root-mean-square value)=  0.2808E-02

     Iteration No.  4     Error (root-mean-square value)=  0.5897E-04

     S O L U T I O N :


     LOAD, FS................................= -0.3000E+01
  __________________________________________________

     Node    x-coord.      y-coord.     U      V  
  __________________________________________________

       1   0.00000E+00   0.00000E+00   0.00000E+00   0.00000E+00
       2   0.96810E+00  -0.36144E-01  -0.31897E-01  -0.36144E-01
       3   0.19367E+01  -0.12707E+00  -0.63317E-01  -0.12707E+00
       4   0.29072E+01  -0.26568E+00  -0.92822E-01  -0.26568E+00
       5   0.38759E+01  -0.43908E+00  -0.12408E+00  -0.43908E+00
       6   0.48450E+01  -0.63923E+00  -0.15503E+00  -0.63923E+00
       7   0.58130E+01  -0.85753E+00  -0.18703E+00  -0.85753E+00
       8   0.67818E+01  -0.10879E+01  -0.21822E+00  -0.10879E+01
       9   0.77507E+01  -0.13251E+01  -0.24931E+00  -0.13251E+01
      10   0.87206E+01  -0.15654E+01  -0.27940E+00  -0.15654E+01
      11   0.96909E+01  -0.18066E+01  -0.30914E+00  -0.18066E+01
      12   0.00000E+00   0.50000E+00   0.00000E+00   0.00000E+00
      13   0.99993E+00   0.46532E+00  -0.70625E-04  -0.34679E-01
      14   0.19960E+01   0.37061E+00  -0.39932E-02  -0.12939E+00
      15   0.29864E+01   0.22940E+00  -0.13631E-01  -0.27060E+00
      16   0.39709E+01   0.52690E-01  -0.29092E-01  -0.44731E+00
      17   0.49504E+01  -0.14978E+00  -0.49568E-01  -0.64978E+00
      18   0.59260E+01  -0.37005E+00  -0.73978E-01  -0.87005E+00
      19   0.68990E+01  -0.60160E+00  -0.10103E+00  -0.11016E+01
      20   0.78703E+01  -0.83948E+00  -0.12966E+00  -0.13395E+01
      21   0.88410E+01  -0.10801E+01  -0.15899E+00  -0.15801E+01
      22   0.98115E+01  -0.13214E+01  -0.18852E+00  -0.18214E+01
      23   0.00000E+00   0.10000E+01   0.00000E+00   0.00000E+00
      24   0.10315E+01   0.96162E+00   0.31479E-01  -0.38383E-01
      25   0.20549E+01   0.86556E+00   0.54917E-01  -0.13444E+00
      26   0.30651E+01   0.72168E+00   0.65090E-01  -0.27832E+00
      27   0.40656E+01   0.54259E+00   0.65569E-01  -0.45741E+00
      28   0.50556E+01   0.33828E+00   0.55589E-01  -0.66172E+00
      29   0.60389E+01   0.11654E+00   0.38905E-01  -0.88346E+00
      30   0.70160E+01  -0.11579E+00   0.16046E-01  -0.11158E+01
      31   0.79900E+01  -0.35414E+00  -0.10046E-01  -0.13541E+01
      32   0.89614E+01  -0.59487E+00  -0.38591E-01  -0.15949E+01
      33   0.99321E+01  -0.83619E+00  -0.67894E-01  -0.18362E+01
  __________________________________________________

  _____________________________________________________________________________

            x-coord.     y-coord.     SigmaXX     SigmaYY     SigmaXY
                                        SXX         SYY          SXY
  _____________________________________________________________________________

    1     0.41504E+00  0.20365E+00 -0.22903E+06 -0.27392E+05 -0.85219E+04
                                   -0.21964E+06 -0.25121E+05 -0.14019E+05
    1     0.43110E+00  0.78065E+00  0.22924E+06  0.24137E+05 -0.20650E+05
                                    0.23997E+06  0.26420E+05 -0.15036E+05
    1     0.15477E+01  0.12991E+00 -0.18366E+06  0.77499E+04  0.56498E+04
                                   -0.17658E+06  0.96310E+04 -0.12753E+05
    1     0.16032E+01  0.70446E+00  0.18397E+06 -0.77000E+04 -0.31032E+05
                                    0.19544E+06 -0.89102E+04 -0.12096E+05
    2     0.23760E+01  0.28854E-01 -0.13995E+06 -0.41484E+04  0.71850E+04
                                   -0.13582E+06 -0.34268E+04 -0.11367E+05
    2     0.24545E+01  0.60070E+00  0.13740E+06  0.50931E+04 -0.30132E+05
                                    0.14710E+06  0.94513E+03 -0.11215E+05
    2     0.35043E+01 -0.15278E+00 -0.10703E+06  0.54960E+03  0.99727E+04
                                   -0.10494E+06  0.14862E+04 -0.94072E+04
    2     0.36066E+01  0.41540E+00  0.10469E+06  0.61733E+04 -0.28485E+05
                                    0.11399E+06  0.25911E+03 -0.95197E+04
    3     0.43278E+01 -0.31384E+00 -0.73876E+05  0.30666E+03  0.65484E+04
                                   -0.72442E+05  0.31406E+03 -0.84488E+04
    3     0.44428E+01  0.25186E+00  0.70753E+05  0.41479E+04 -0.22757E+05
                                    0.78188E+05 -0.16313E+04 -0.79478E+04
    3     0.54506E+01 -0.55655E+00 -0.51602E+05  0.20475E+03  0.51600E+04
                                   -0.50791E+05  0.10407E+03 -0.64628E+04
    3     0.55777E+01  0.66207E-02  0.49107E+05  0.58411E+04 -0.17459E+05
                                    0.55095E+05  0.65747E+03 -0.64779E+04
    4     0.62710E+01 -0.74819E+00 -0.29798E+05  0.16734E+04  0.18376E+04
                                   -0.28779E+05  0.90150E+03 -0.53964E+04
    4     0.64038E+01 -0.18633E+00  0.27460E+05  0.26341E+04 -0.11854E+05
                                    0.31661E+05 -0.12762E+04 -0.50465E+04
    4     0.73914E+01 -0.10186E+01 -0.16771E+05  0.77623E+03  0.51089E+03
                                   -0.15961E+05  0.42545E+02 -0.35954E+04
    4     0.75285E+01 -0.45782E+00  0.15192E+05  0.27068E+04 -0.71523E+04
                                    0.17855E+05  0.13498E+03 -0.34643E+04
    5     0.82113E+01 -0.12214E+01 -0.58039E+04  0.15341E+04 -0.80580E+03
                                   -0.49966E+04  0.73930E+03 -0.24231E+04
    5     0.83499E+01 -0.66090E+00  0.47341E+04  0.64701E+03 -0.35300E+04
                                    0.61547E+04 -0.75844E+03 -0.21703E+04
    5     0.93317E+01 -0.14995E+01 -0.12547E+04  0.56535E+03 -0.32536E+03
                                   -0.99597E+03  0.30741E+03 -0.71354E+03
    5     0.94710E+01 -0.93919E+00  0.96305E+03 -0.41483E+02 -0.85109E+03
                                    0.13036E+04 -0.38124E+03 -0.51686E+03
  _____________________________________________________________________________


     Iteration No.  1     Error (root-mean-square value)=  0.2431E+00

     Iteration No.  2     Error (root-mean-square value)=  0.7200E-02

     Iteration No.  3     Error (root-mean-square value)=  0.2681E-02

     Iteration No.  4     Error (root-mean-square value)=  0.5482E-04

     S O L U T I O N :


     LOAD, FS................................= -0.4000E+01
  __________________________________________________

     Node    x-coord.      y-coord.     U      V  
  __________________________________________________

       1   0.00000E+00   0.00000E+00   0.00000E+00   0.00000E+00
       2   0.95789E+00  -0.47267E-01  -0.42106E-01  -0.47267E-01
       3   0.19150E+01  -0.16589E+00  -0.84979E-01  -0.16589E+00
       4   0.28724E+01  -0.34689E+00  -0.12759E+00  -0.34689E+00
       5   0.38253E+01  -0.57298E+00  -0.17472E+00  -0.57298E+00
       6   0.47765E+01  -0.83399E+00  -0.22354E+00  -0.83399E+00
       7   0.57247E+01  -0.11185E+01  -0.27527E+00  -0.11185E+01
       8   0.66729E+01  -0.14188E+01  -0.32709E+00  -0.14188E+01
       9   0.76206E+01  -0.17278E+01  -0.37943E+00  -0.17278E+01
      10   0.85692E+01  -0.20412E+01  -0.43080E+00  -0.20412E+01
      11   0.95182E+01  -0.23557E+01  -0.48181E+00  -0.23557E+01
      12   0.00000E+00   0.50000E+00   0.00000E+00   0.00000E+00
      13   0.99987E+00   0.45418E+00  -0.12554E-03  -0.45819E-01
      14   0.19931E+01   0.32949E+00  -0.69333E-02  -0.17051E+00
      15   0.29764E+01   0.14400E+00  -0.23619E-01  -0.35600E+00
      16   0.39497E+01  -0.87591E-01  -0.50323E-01  -0.58759E+00
      17   0.49144E+01  -0.35247E+00  -0.85626E-01  -0.85247E+00
      18   0.58724E+01  -0.64020E+00  -0.12765E+00  -0.11402E+01
      19   0.68258E+01  -0.94240E+00  -0.17418E+00  -0.14424E+01
      20   0.77766E+01  -0.12527E+01  -0.22339E+00  -0.17527E+01
      21   0.87262E+01  -0.15664E+01  -0.27381E+00  -0.20664E+01
      22   0.96754E+01  -0.18810E+01  -0.32455E+00  -0.23810E+01
      23   0.00000E+00   0.10000E+01   0.00000E+00   0.00000E+00
      24   0.10414E+01   0.94885E+00   0.41375E-01  -0.51155E-01
      25   0.20704E+01   0.82135E+00   0.70400E-01  -0.17865E+00
      26   0.30795E+01   0.63127E+00   0.79547E-01  -0.36873E+00
      27   0.40735E+01   0.39539E+00   0.73522E-01  -0.60461E+00
      28   0.50518E+01   0.12728E+00   0.51763E-01  -0.87272E+00
      29   0.60197E+01  -0.16308E+00   0.19683E-01  -0.11631E+01
      30   0.69785E+01  -0.46668E+00  -0.21466E-01  -0.14667E+01
      31   0.79326E+01  -0.77781E+00  -0.67422E-01  -0.17778E+01
      32   0.88832E+01  -0.10918E+01  -0.11682E+00  -0.20918E+01
      33   0.98327E+01  -0.14064E+01  -0.16727E+00  -0.24064E+01
  __________________________________________________

  _____________________________________________________________________________

            x-coord.     y-coord.     SigmaXX     SigmaYY     SigmaXY
                                        SXX         SYY          SXY
  _____________________________________________________________________________

    1     0.41278E+00  0.20120E+00 -0.30144E+06 -0.36984E+05 -0.91333E+04
                                   -0.28546E+06 -0.33071E+05 -0.18640E+05
    1     0.43397E+00  0.77795E+00  0.30175E+06  0.31346E+05 -0.30179E+05
                                    0.32080E+06  0.35288E+05 -0.20405E+05
    1     0.15375E+01  0.10454E+00 -0.23950E+06  0.85445E+04  0.14617E+05
                                   -0.22840E+06  0.12575E+05 -0.16933E+05
    1     0.16105E+01  0.67704E+00  0.24001E+06 -0.82749E+04 -0.48557E+05
                                    0.26109E+06 -0.11273E+05 -0.15802E+05
    2     0.23582E+01 -0.27811E-01 -0.18184E+06 -0.76131E+04  0.16543E+05
                                   -0.17607E+06 -0.51817E+04 -0.15114E+05
    2     0.24613E+01  0.54001E+00  0.17727E+06  0.94536E+04 -0.47311E+05
                                    0.19563E+06  0.87066E+03 -0.14845E+05
    2     0.34724E+01 -0.26536E+00 -0.13738E+06 -0.11037E+04  0.20632E+05
                                   -0.13567E+06  0.22795E+04 -0.12356E+05
    2     0.36064E+01  0.29617E+00  0.13340E+06  0.12773E+05 -0.44592E+05
                                    0.15132E+06  0.75295E+03 -0.12552E+05
    3     0.42829E+01 -0.47574E+00 -0.94551E+05 -0.13590E+04  0.14159E+05
                                   -0.93593E+05  0.94007E+02 -0.11204E+05
    3     0.44334E+01  0.81526E-01  0.89149E+05  0.91331E+04 -0.35259E+05
                                    0.10354E+06 -0.23636E+04 -0.10334E+05
    3     0.53852E+01 -0.79251E+00 -0.65514E+05 -0.85758E+03  0.11196E+05
                                   -0.65473E+05  0.28760E+03 -0.84584E+04
    3     0.55512E+01 -0.23957E+00  0.61341E+05  0.11205E+05 -0.26699E+05
                                    0.72924E+05  0.10227E+04 -0.84814E+04
    4     0.61890E+01 -0.10424E+01 -0.37893E+05  0.16176E+04  0.50971E+04
                                   -0.36959E+05  0.10928E+04 -0.71261E+04
    4     0.63622E+01 -0.49174E+00  0.33949E+05  0.57685E+04 -0.17790E+05
                                    0.41961E+05 -0.17343E+04 -0.65202E+04
    4     0.72856E+01 -0.13951E+01 -0.21321E+05  0.86410E+03  0.22437E+04
                                   -0.20421E+05  0.90759E+02 -0.47215E+04
    4     0.74645E+01 -0.84616E+00  0.18697E+05  0.50645E+04 -0.10529E+05
                                    0.23709E+05  0.21250E+03 -0.44918E+04
    5     0.80876E+01 -0.16594E+01 -0.74841E+04  0.21570E+04 -0.43366E+03
                                   -0.62671E+04  0.96046E+03 -0.32152E+04
    5     0.82683E+01 -0.11111E+01  0.57020E+04  0.15594E+04 -0.49861E+04
                                    0.82799E+04 -0.99196E+03 -0.27767E+04
    5     0.91835E+01 -0.20220E+01 -0.16543E+04  0.80551E+03 -0.29800E+03
                                   -0.12322E+04  0.38477E+03 -0.97339E+03
    5     0.93651E+01 -0.14739E+01  0.11636E+04  0.88483E+02 -0.11871E+04
                                    0.17671E+04 -0.51354E+03 -0.63121E+03
  _____________________________________________________________________________


     Iteration No.  1     Error (root-mean-square value)=  0.1899E+00

     Iteration No.  2     Error (root-mean-square value)=  0.5376E-02

     Iteration No.  3     Error (root-mean-square value)=  0.2343E-02

     Iteration No.  4     Error (root-mean-square value)=  0.4921E-04

     S O L U T I O N :


     LOAD, FS................................= -0.5000E+01
  __________________________________________________

     Node    x-coord.      y-coord.     U      V  
  __________________________________________________

       1   0.00000E+00   0.00000E+00   0.00000E+00   0.00000E+00
       2   0.94803E+00  -0.57851E-01  -0.51971E-01  -0.57851E-01
       3   0.18935E+01  -0.20258E+00  -0.10648E+00  -0.20258E+00
       4   0.28367E+01  -0.42350E+00  -0.16329E+00  -0.42350E+00
       5   0.37718E+01  -0.69893E+00  -0.22818E+00  -0.69893E+00
       6   0.47025E+01  -0.10168E+01  -0.29754E+00  -0.10168E+01
       7   0.56278E+01  -0.13628E+01  -0.37223E+00  -0.13628E+01
       8   0.65517E+01  -0.17281E+01  -0.44835E+00  -0.17281E+01
       9   0.74741E+01  -0.21040E+01  -0.52585E+00  -0.21040E+01
      10   0.83974E+01  -0.24851E+01  -0.60257E+00  -0.24851E+01
      11   0.93210E+01  -0.28677E+01  -0.67896E+00  -0.28677E+01
      12   0.00000E+00   0.50000E+00   0.00000E+00   0.00000E+00
      13   0.99980E+00   0.44336E+00  -0.19599E-03  -0.56642E-01
      14   0.19895E+01   0.28989E+00  -0.10527E-01  -0.21011E+00
      15   0.29642E+01   0.62199E-01  -0.35770E-01  -0.43780E+00
      16   0.39239E+01  -0.22130E+00  -0.76055E-01  -0.72130E+00
      17   0.48708E+01  -0.54481E+00  -0.12919E+00  -0.10448E+01
      18   0.58077E+01  -0.89564E+00  -0.19234E+00  -0.13956E+01
      19   0.67378E+01  -0.12637E+01  -0.26218E+00  -0.17637E+01
      20   0.76640E+01  -0.16413E+01  -0.33599E+00  -0.21413E+01
      21   0.85884E+01  -0.20230E+01  -0.41158E+00  -0.25230E+01
      22   0.95123E+01  -0.24057E+01  -0.48767E+00  -0.29057E+01
      23   0.00000E+00   0.10000E+01   0.00000E+00   0.00000E+00
      24   0.10509E+01   0.93625E+00   0.50852E-01  -0.63753E-01
      25   0.20844E+01   0.77810E+00   0.84355E-01  -0.22190E+00
      26   0.30905E+01   0.54352E+00   0.90538E-01  -0.45648E+00
      27   0.40752E+01   0.25342E+00   0.75245E-01  -0.74658E+00
      28   0.50384E+01  -0.74999E-01   0.38370E-01  -0.10750E+01
      29   0.59871E+01  -0.42982E+00  -0.12878E-01  -0.14298E+01
      30   0.69237E+01  -0.80000E+00  -0.76298E-01  -0.18000E+01
      31   0.78538E+01  -0.11789E+01  -0.14623E+00  -0.21789E+01
      32   0.87794E+01  -0.15610E+01  -0.22061E+00  -0.25610E+01
      33   0.97037E+01  -0.19438E+01  -0.29634E+00  -0.29438E+01
  __________________________________________________

  _____________________________________________________________________________

            x-coord.     y-coord.     SigmaXX     SigmaYY     SigmaXY
                                        SXX         SYY          SXY
  _____________________________________________________________________________

    1     0.41068E+00  0.19882E+00 -0.37093E+06 -0.46687E+05 -0.89119E+04
                                   -0.34712E+06 -0.40805E+05 -0.23288E+05
    1     0.43681E+00  0.77526E+00  0.37131E+06  0.38155E+05 -0.40844E+05
                                    0.40087E+06  0.44098E+05 -0.25966E+05
    1     0.15274E+01  0.80320E-01 -0.29141E+06  0.81095E+04  0.26207E+05
                                   -0.27626E+06  0.15296E+05 -0.21015E+05
    1     0.16171E+01  0.65032E+00  0.29211E+06 -0.73609E+04 -0.68756E+05
                                    0.32579E+06 -0.13226E+05 -0.19316E+05
    2     0.23398E+01 -0.81752E-01 -0.22012E+06 -0.12525E+05  0.28279E+05
                                   -0.21336E+06 -0.72192E+04 -0.18817E+05
    2     0.24663E+01  0.48118E+00  0.21295E+06  0.15684E+05 -0.66950E+05
                                    0.24296E+06  0.67052E+03 -0.18398E+05
    2     0.34380E+01 -0.37203E+00 -0.16380E+06 -0.43752E+04  0.33673E+05
                                   -0.16387E+06  0.31784E+04 -0.15173E+05
    2     0.36020E+01  0.18146E+00  0.15787E+06  0.22083E+05 -0.62546E+05
                                    0.18752E+06  0.14292E+04 -0.15470E+05
    3     0.42333E+01 -0.62869E+00 -0.11228E+06 -0.44180E+04  0.23400E+05
                                   -0.11291E+06 -0.27037E+03 -0.13877E+05
    3     0.44171E+01 -0.81566E-01  0.10412E+06  0.16289E+05 -0.48997E+05
                                    0.12796E+06 -0.31430E+04 -0.12558E+05
    3     0.53116E+01 -0.10147E+01 -0.76984E+05 -0.29968E+04  0.18491E+05
                                   -0.78778E+05  0.52646E+03 -0.10337E+05
    3     0.55140E+01 -0.47398E+00  0.70929E+05  0.18437E+05 -0.36583E+05
                                    0.90052E+05  0.14409E+04 -0.10366E+05
    4     0.60957E+01 -0.13189E+01 -0.44573E+05  0.93050E+03  0.91320E+04
                                   -0.44284E+05  0.12316E+04 -0.87798E+04
    4     0.63067E+01 -0.78153E+00  0.38793E+05  0.10117E+05 -0.24039E+05
                                    0.51874E+05 -0.21890E+04 -0.78629E+04
    4     0.71642E+01 -0.17479E+01 -0.25047E+05  0.64511E+03  0.44506E+04
                                   -0.24369E+05  0.15065E+03 -0.57854E+04
    4     0.73819E+01 -0.12132E+01  0.21273E+05  0.81455E+04 -0.13997E+05
                                    0.29361E+05  0.30062E+03 -0.54330E+04
    5     0.79448E+01 -0.20694E+01 -0.89117E+04  0.27250E+04  0.16861E+03
                                   -0.73220E+04  0.11647E+04 -0.39783E+04
    5     0.81647E+01 -0.15356E+01  0.63396E+04  0.27921E+04 -0.64285E+04
                                    0.10382E+05 -0.12093E+04 -0.33133E+04
    5     0.90115E+01 -0.25106E+01 -0.20202E+04  0.10484E+04 -0.21463E+03
                                   -0.14181E+04  0.44832E+03 -0.12364E+04
    5     0.92323E+01 -0.19771E+01  0.13028E+04  0.28138E+03 -0.15227E+04
                                    0.22313E+04 -0.64487E+03 -0.71567E+03
  _____________________________________________________________________________


     Iteration No.  1     Error (root-mean-square value)=  0.1537E+00

     Iteration No.  2     Error (root-mean-square value)=  0.4164E-02

     Iteration No.  3     Error (root-mean-square value)=  0.1921E-02

     Iteration No.  4     Error (root-mean-square value)=  0.4542E-04

     S O L U T I O N :


     LOAD, FS................................= -0.6000E+01
  __________________________________________________

     Node    x-coord.      y-coord.     U      V  
  __________________________________________________

       1   0.00000E+00   0.00000E+00   0.00000E+00   0.00000E+00
       2   0.93855E+00  -0.67887E-01  -0.61448E-01  -0.67887E-01
       3   0.18724E+01  -0.23709E+00  -0.12761E+00  -0.23709E+00
       4   0.28006E+01  -0.49533E+00  -0.19940E+00  -0.49533E+00
       5   0.37166E+01  -0.81654E+00  -0.28342E+00  -0.81654E+00
       6   0.46247E+01  -0.11869E+01  -0.37530E+00  -0.11869E+01
       7   0.55247E+01  -0.15897E+01  -0.47532E+00  -0.15897E+01
       8   0.64215E+01  -0.20147E+01  -0.57846E+00  -0.20147E+01
       9   0.73160E+01  -0.24518E+01  -0.68403E+00  -0.24518E+01
      10   0.82109E+01  -0.28952E+01  -0.78913E+00  -0.28952E+01
      11   0.91060E+01  -0.33401E+01  -0.89396E+00  -0.33401E+01
      12   0.00000E+00   0.50000E+00   0.00000E+00   0.00000E+00
      13   0.99972E+00   0.43289E+00  -0.28171E-03  -0.67115E-01
      14   0.19853E+01   0.25196E+00  -0.14668E-01  -0.24804E+00
      15   0.29503E+01  -0.15636E-01  -0.49698E-01  -0.51564E+00
      16   0.38946E+01  -0.34777E+00  -0.10542E+00  -0.84777E+00
      17   0.48213E+01  -0.72582E+00  -0.17873E+00  -0.12258E+01
      18   0.57343E+01  -0.11350E+01  -0.26567E+00  -0.16350E+01
      19   0.66383E+01  -0.15636E+01  -0.36170E+00  -0.20636E+01
      20   0.75369E+01  -0.20031E+01  -0.46312E+00  -0.25031E+01
      21   0.84331E+01  -0.24472E+01  -0.56695E+00  -0.29472E+01
      22   0.93286E+01  -0.28923E+01  -0.67144E+00  -0.33923E+01
      23   0.00000E+00   0.10000E+01   0.00000E+00   0.00000E+00
      24   0.10599E+01   0.92389E+00   0.59873E-01  -0.76111E-01
      25   0.20968E+01   0.73608E+00   0.96807E-01  -0.26392E+00
      26   0.30983E+01   0.45900E+00   0.98333E-01  -0.54100E+00
      27   0.40715E+01   0.11766E+00   0.71455E-01  -0.88234E+00
      28   0.50168E+01  -0.26716E+00   0.16779E-01  -0.12672E+01
      29   0.59434E+01  -0.68184E+00  -0.56596E-01  -0.16818E+01
      30   0.68547E+01  -0.11135E+01  -0.14533E+00  -0.21135E+01
      31   0.77577E+01  -0.15548E+01  -0.24235E+00  -0.25548E+01
      32   0.86552E+01  -0.19993E+01  -0.34479E+00  -0.29993E+01
      33   0.95511E+01  -0.24447E+01  -0.44888E+00  -0.34447E+01
  __________________________________________________

  _____________________________________________________________________________

            x-coord.     y-coord.     SigmaXX     SigmaYY     SigmaXY
                                        SXX         SYY          SXY
  _____________________________________________________________________________

    1     0.40872E+00  0.19650E+00 -0.43720E+06 -0.56438E+05 -0.80316E+04
                                   -0.40461E+06 -0.48333E+05 -0.27983E+05
    1     0.43961E+00  0.77257E+00  0.43758E+06  0.44592E+05 -0.52494E+05
                                    0.47966E+06  0.52805E+05 -0.31714E+05
    1     0.15174E+01  0.57290E-01 -0.33903E+06  0.64104E+04  0.39806E+05
                                   -0.32016E+06  0.17777E+05 -0.24975E+05
    1     0.16231E+01  0.62442E+00  0.33992E+06 -0.48225E+04 -0.91002E+05
                                    0.38902E+06 -0.14740E+05 -0.22639E+05
    2     0.23211E+01 -0.13281E+00 -0.25452E+06 -0.18900E+05  0.41680E+05
                                   -0.24763E+06 -0.95097E+04 -0.22465E+05
    2     0.24697E+01  0.42454E+00  0.24415E+06  0.23873E+05 -0.88297E+05
                                    0.28873E+06  0.38036E+03 -0.21865E+05
    2     0.34017E+01 -0.47242E+00 -0.18604E+06 -0.93593E+04  0.48246E+05
                                   -0.18947E+06  0.41586E+04 -0.17846E+05
    2     0.35938E+01  0.71950E-01  0.17796E+06  0.34015E+05 -0.81446E+05
                                    0.22224E+06  0.22662E+04 -0.18261E+05
    3     0.41804E+01 -0.77208E+00 -0.12689E+06 -0.88838E+04  0.33574E+05
                                   -0.13033E+06 -0.75942E+03 -0.16448E+05
    3     0.43951E+01 -0.23642E+00  0.11560E+06  0.25525E+05 -0.63226E+05
                                    0.15122E+06 -0.39445E+04 -0.14611E+05
    3     0.52320E+01 -0.12220E+01 -0.85905E+05 -0.62565E+04  0.26458E+05
                                   -0.90666E+05  0.80762E+03 -0.12088E+05
    3     0.54679E+01 -0.69514E+00  0.77904E+05  0.27358E+05 -0.46508E+05
                                    0.10631E+06  0.18981E+04 -0.12119E+05
    4     0.59941E+01 -0.15762E+01 -0.49773E+05 -0.41460E+03  0.13582E+05
                                   -0.50731E+05  0.13230E+04 -0.10342E+05
    4     0.62398E+01 -0.10539E+01  0.42039E+05  0.15551E+05 -0.30229E+05
                                    0.61301E+05 -0.26305E+04 -0.90693E+04
    4     0.70310E+01 -0.20755E+01 -0.27904E+05  0.85454E+02  0.69199E+04
                                   -0.27797E+05  0.21860E+03 -0.67787E+04
    4     0.72844E+01 -0.15567E+01  0.22965E+05  0.11843E+05 -0.17347E+05
                                    0.34752E+05  0.39564E+03 -0.62818E+04
    5     0.77878E+01 -0.24495E+01 -0.10057E+05  0.32055E+04  0.92860E+03
                                   -0.81643E+04  0.13512E+04 -0.47043E+04
    5     0.80436E+01 -0.19319E+01  0.66774E+04  0.42916E+04 -0.77847E+04
                                    0.12434E+05 -0.14083E+04 -0.37788E+04
    5     0.88217E+01 -0.29626E+01 -0.23448E+04  0.12852E+04 -0.86819E+02
                                   -0.15550E+04  0.49814E+03 -0.14990E+04
    5     0.90786E+01 -0.24456E+01  0.13870E+04  0.52617E+03 -0.18459E+04
                                    0.26900E+04 -0.77371E+03 -0.77135E+03
  _____________________________________________________________________________


     Iteration No.  1     Error (root-mean-square value)=  0.1274E+00

     Iteration No.  2     Error (root-mean-square value)=  0.3326E-02

     Iteration No.  3     Error (root-mean-square value)=  0.1486E-02

     Iteration No.  4     Error (root-mean-square value)=  0.4439E-04

     S O L U T I O N :


     LOAD, FS................................= -0.7000E+01
  __________________________________________________

     Node    x-coord.      y-coord.     U      V  
  __________________________________________________

       1   0.00000E+00   0.00000E+00   0.00000E+00   0.00000E+00
       2   0.92949E+00  -0.77384E-01  -0.70514E-01  -0.77384E-01
       3   0.18518E+01  -0.26944E+00  -0.14823E+00  -0.26944E+00
       4   0.27645E+01  -0.56239E+00  -0.23548E+00  -0.56239E+00
       5   0.36605E+01  -0.92582E+00  -0.33954E+00  -0.92582E+00
       6   0.45447E+01  -0.13444E+01  -0.45528E+00  -0.13444E+01
       7   0.54178E+01  -0.17989E+01  -0.58225E+00  -0.17989E+01
       8   0.62858E+01  -0.22783E+01  -0.71425E+00  -0.22783E+01
       9   0.71502E+01  -0.27711E+01  -0.84984E+00  -0.27711E+01
      10   0.80146E+01  -0.32709E+01  -0.98536E+00  -0.32709E+01
      11   0.88793E+01  -0.37725E+01  -0.11207E+01  -0.37725E+01
      12   0.00000E+00   0.50000E+00   0.00000E+00   0.00000E+00
      13   0.99962E+00   0.42278E+00  -0.38228E-03  -0.77219E-01
      14   0.19807E+01   0.21578E+00  -0.19257E-01  -0.28422E+00
      15   0.29350E+01  -0.89337E-01  -0.65032E-01  -0.58934E+00
      16   0.38624E+01  -0.46672E+00  -0.13758E+00  -0.96672E+00
      17   0.47672E+01  -0.89509E+00  -0.23276E+00  -0.13951E+01
      18   0.56546E+01  -0.13577E+01  -0.34539E+00  -0.18577E+01
      19   0.65304E+01  -0.18416E+01  -0.46962E+00  -0.23416E+01
      20   0.73993E+01  -0.23373E+01  -0.60071E+00  -0.28373E+01
      21   0.82651E+01  -0.28381E+01  -0.73486E+00  -0.33381E+01
      22   0.91301E+01  -0.33400E+01  -0.86986E+00  -0.38400E+01
      23   0.00000E+00   0.10000E+01   0.00000E+00   0.00000E+00
      24   0.10684E+01   0.91182E+00   0.68423E-01  -0.88179E-01
      25   0.21078E+01   0.69548E+00   0.10783E+00  -0.30452E+00
      26   0.31033E+01   0.37807E+00   0.10326E+00  -0.62193E+00
      27   0.40629E+01  -0.11333E-01   0.62931E-01  -0.10113E+01
      28   0.49884E+01  -0.44846E+00  -0.11596E-01  -0.14485E+01
      29   0.58907E+01  -0.91820E+00  -0.10927E+00  -0.19182E+01
      30   0.67745E+01  -0.14060E+01  -0.22550E+00  -0.24060E+01
      31   0.76482E+01  -0.19041E+01  -0.35175E+00  -0.29041E+01
      32   0.85156E+01  -0.24055E+01  -0.48438E+00  -0.34055E+01
      33   0.93811E+01  -0.29076E+01  -0.61894E+00  -0.39076E+01
  __________________________________________________

  _____________________________________________________________________________

            x-coord.     y-coord.     SigmaXX     SigmaYY     SigmaXY
                                        SXX         SYY          SXY
  _____________________________________________________________________________

    1     0.40692E+00  0.19424E+00 -0.50013E+06 -0.66181E+05 -0.66505E+04
                                   -0.45806E+06 -0.55674E+05 -0.32739E+05
    1     0.44236E+00  0.76991E+00  0.50042E+06  0.50690E+05 -0.64973E+05
                                    0.55681E+06  0.61374E+05 -0.37636E+05
    1     0.15076E+01  0.35464E-01 -0.38225E+06  0.34966E+04  0.54844E+05
                                   -0.36023E+06  0.20019E+05 -0.28801E+05
    1     0.16284E+01  0.59943E+00  0.38330E+06 -0.62094E+03 -0.11470E+06
                                    0.45039E+06 -0.15809E+05 -0.25779E+05
    2     0.23023E+01 -0.18095E+00 -0.28498E+06 -0.26643E+05  0.56100E+05
                                   -0.27890E+06 -0.12018E+05 -0.26049E+05
    2     0.24716E+01  0.37029E+00  0.27085E+06  0.33981E+05 -0.11065E+06
                                    0.33266E+06  0.29398E+02 -0.25239E+05
    2     0.33643E+01 -0.56641E+00 -0.20413E+06 -0.15978E+05  0.63581E+05
                                   -0.21252E+06  0.51990E+04 -0.20372E+05
    2     0.35825E+01 -0.31986E-01  0.19380E+06  0.48314E+05 -0.10051E+06
                                    0.25528E+06  0.32403E+04 -0.20917E+05
    3     0.41251E+01 -0.90574E+00 -0.13848E+06 -0.14625E+05  0.44075E+05
                                   -0.14587E+06 -0.13513E+04 -0.18903E+05
    3     0.43684E+01 -0.38253E+00  0.12378E+06  0.36601E+05 -0.77314E+05
                                    0.17317E+06 -0.47474E+04 -0.16493E+05
    3     0.51481E+01 -0.14143E+01 -0.92371E+05 -0.10544E+05  0.34581E+05
                                   -0.10115E+06  0.11188E+04 -0.13707E+05
    3     0.54149E+01 -0.90237E+00  0.82473E+05  0.37671E+05 -0.55991E+05
                                    0.12160E+06  0.23815E+04 -0.13734E+05
    4     0.58868E+01 -0.18141E+01 -0.53545E+05 -0.23588E+04  0.18134E+05
                                   -0.56311E+05  0.13731E+04 -0.11804E+05
    4     0.61642E+01 -0.13079E+01  0.43843E+05  0.21874E+05 -0.36064E+05
                                    0.70179E+05 -0.30514E+04 -0.10140E+05
    4     0.68900E+01 -0.23773E+01 -0.29925E+05 -0.79470E+03  0.94650E+04
                                   -0.30714E+05  0.29123E+03 -0.76972E+04
    4     0.71757E+01 -0.18757E+01  0.23877E+05  0.16018E+05 -0.20423E+05
                                    0.39844E+05  0.49422E+03 -0.70363E+04
    5     0.76211E+01 -0.27989E+01 -0.10919E+05  0.35874E+04  0.17780E+04
                                   -0.88037E+04  0.15199E+04 -0.53881E+04
    5     0.79095E+01 -0.22988E+01  0.67618E+04  0.59941E+04 -0.90049E+04
                                    0.14419E+05 -0.15877E+04 -0.41747E+04
    5     0.86198E+01 -0.33775E+01 -0.26251E+04  0.15106E+04  0.73649E+02
                                   -0.16458E+04  0.53477E+03 -0.17583E+04
    5     0.89095E+01 -0.28780E+01  0.14248E+04  0.81076E+03 -0.21491E+04
                                    0.31386E+04 -0.89894E+03 -0.80009E+03
  _____________________________________________________________________________


     Iteration No.  1     Error (root-mean-square value)=  0.1074E+00

     Iteration No.  2     Error (root-mean-square value)=  0.2733E-02

     Iteration No.  3     Error (root-mean-square value)=  0.1079E-02

     Iteration No.  4     Error (root-mean-square value)=  0.4578E-04

     S O L U T I O N :


     LOAD, FS................................= -0.8000E+01
  __________________________________________________

     Node    x-coord.      y-coord.     U      V  
  __________________________________________________

       1   0.00000E+00   0.00000E+00   0.00000E+00   0.00000E+00
       2   0.92084E+00  -0.86364E-01  -0.79164E-01  -0.86364E-01
       3   0.18317E+01  -0.29971E+00  -0.16825E+00  -0.29971E+00
       4   0.27288E+01  -0.62484E+00  -0.27120E+00  -0.62484E+00
       5   0.36042E+01  -0.10270E+01  -0.39581E+00  -0.10270E+01
       6   0.44638E+01  -0.14896E+01  -0.53621E+00  -0.14896E+01
       7   0.53089E+01  -0.19910E+01  -0.69105E+00  -0.19910E+01
       8   0.61470E+01  -0.25195E+01  -0.85299E+00  -0.25195E+01
       9   0.69802E+01  -0.30626E+01  -0.10198E+01  -0.30626E+01
      10   0.78131E+01  -0.36133E+01  -0.11869E+01  -0.36133E+01
      11   0.86460E+01  -0.41660E+01  -0.13540E+01  -0.41660E+01
      12   0.00000E+00   0.50000E+00   0.00000E+00   0.00000E+00
      13   0.99950E+00   0.41305E+00  -0.49717E-03  -0.86952E-01
      14   0.19758E+01   0.18136E+00  -0.24200E-01  -0.31864E+00
      15   0.29186E+01  -0.15889E+00  -0.81437E-01  -0.65889E+00
      16   0.38282E+01  -0.57816E+00  -0.17180E+00  -0.10782E+01
      17   0.47100E+01  -0.10527E+01  -0.28998E+00  -0.15527E+01
      18   0.55705E+01  -0.15639E+01  -0.42951E+00  -0.20639E+01
      19   0.64168E+01  -0.20979E+01  -0.58317E+00  -0.25979E+01
      20   0.72548E+01  -0.26445E+01  -0.74517E+00  -0.31445E+01
      21   0.80891E+01  -0.31963E+01  -0.91089E+00  -0.36963E+01
      22   0.89224E+01  -0.37494E+01  -0.10776E+01  -0.42494E+01
      23   0.00000E+00   0.10000E+01   0.00000E+00   0.00000E+00
      24   0.10765E+01   0.90007E+00   0.76505E-01  -0.99930E-01
      25   0.21175E+01   0.65638E+00   0.11751E+00  -0.34362E+00
      26   0.31057E+01   0.30089E+00   0.10566E+00  -0.69911E+00
      27   0.40504E+01  -0.13333E+00   0.50443E-01  -0.11333E+01
      28   0.49546E+01  -0.61864E+00  -0.45408E-01  -0.16186E+01
      29   0.58311E+01  -0.11387E+01  -0.16887E+00  -0.21387E+01
      30   0.66860E+01  -0.16774E+01  -0.31396E+00  -0.26774E+01
      31   0.75292E+01  -0.22269E+01  -0.47079E+00  -0.32269E+01
      32   0.83651E+01  -0.27796E+01  -0.63488E+00  -0.37796E+01
      33   0.91989E+01  -0.33329E+01  -0.80115E+00  -0.43329E+01
  __________________________________________________

  _____________________________________________________________________________

            x-coord.     y-coord.     SigmaXX     SigmaYY     SigmaXY
                                        SXX         SYY          SXY
  _____________________________________________________________________________

    1     0.40524E+00  0.19204E+00 -0.55972E+06 -0.75871E+05 -0.49050E+04
                                   -0.50767E+06 -0.62849E+05 -0.37561E+05
    1     0.44503E+00  0.76727E+00  0.55980E+06  0.56485E+05 -0.78135E+05
                                    0.63207E+06  0.69779E+05 -0.43716E+05
    1     0.14981E+01  0.14814E-01 -0.42116E+06 -0.52562E+03  0.70822E+05
                                   -0.39667E+06  0.22038E+05 -0.32486E+05
    1     0.16332E+01  0.57540E+00  0.42230E+06  0.52082E+04 -0.13932E+06
                                    0.50966E+06 -0.16441E+05 -0.28749E+05
    2     0.22835E+01 -0.22622E+00 -0.31161E+06 -0.35584E+05  0.70992E+05
                                   -0.30732E+06 -0.14709E+05 -0.29562E+05
    2     0.24722E+01  0.31848E+00  0.29319E+06  0.45871E+05 -0.13341E+06
                                    0.37458E+06 -0.35969E+03 -0.28513E+05
    2     0.33263E+01 -0.65414E+00 -0.21830E+06 -0.24036E+05  0.79042E+05
                                   -0.23313E+06  0.62823E+04 -0.22750E+05
    2     0.35685E+01 -0.13023E+00  0.20570E+06  0.64621E+05 -0.11910E+06
                                    0.28651E+06  0.43273E+04 -0.23435E+05
    3     0.40685E+01 -0.10299E+01 -0.14725E+06 -0.21422E+05  0.54419E+05
                                   -0.15960E+06 -0.20240E+04 -0.21233E+05
    3     0.43379E+01 -0.51975E+00  0.12898E+06  0.49191E+05 -0.90769E+05
                                    0.19374E+06 -0.55359E+04 -0.18209E+05
    3     0.50618E+01 -0.15919E+01 -0.96605E+05 -0.15679E+05  0.42455E+05
                                   -0.11029E+06  0.14490E+04 -0.15195E+05
    3     0.53566E+01 -0.10956E+01  0.84944E+05  0.49030E+05 -0.64687E+05
                                    0.13586E+06  0.28795E+04 -0.15209E+05
    4     0.57760E+01 -0.20330E+01 -0.56026E+05 -0.47898E+04  0.22543E+05
                                   -0.61062E+05  0.13887E+04 -0.13160E+05
    4     0.60821E+01 -0.15437E+01  0.44417E+05  0.28857E+05 -0.41343E+05
                                    0.78477E+05 -0.34465E+04 -0.11079E+05
    4     0.67441E+01 -0.26540E+01 -0.31188E+05 -0.19398E+04  0.11939E+05
                                   -0.33145E+05  0.36563E+03 -0.85404E+04
    4     0.70591E+01 -0.21702E+01  0.24139E+05  0.20518E+05 -0.23126E+05
                                    0.44617E+05  0.59348E+03 -0.76983E+04
    5     0.74486E+01 -0.31186E+01 -0.11514E+05  0.38755E+04  0.26592E+04
                                   -0.92539E+04  0.16717E+04 -0.60270E+04
    5     0.77665E+01 -0.26367E+01  0.66457E+04  0.78356E+04 -0.10061E+05
                                    0.16323E+05 -0.17471E+04 -0.45042E+04
    5     0.84107E+01 -0.37560E+01 -0.28619E+04  0.17224E+04  0.25614E+03
                                   -0.16941E+04  0.55901E+03 -0.20122E+04
    5     0.87299E+01 -0.32750E+01  0.14251E+04  0.11235E+04 -0.24281E+04
                                    0.35737E+04 -0.10199E+04 -0.80415E+03
  _____________________________________________________________________________


     Iteration No.  1     Error (root-mean-square value)=  0.9187E-01

     Iteration No.  2     Error (root-mean-square value)=  0.2306E-02

     Iteration No.  3     Error (root-mean-square value)=  0.7267E-03

     S O L U T I O N :


     LOAD, FS................................= -0.9000E+01
  __________________________________________________

     Node    x-coord.      y-coord.     U      V  
  __________________________________________________

       1   0.00000E+00   0.00000E+00   0.00000E+00   0.00000E+00
       2   0.91258E+00  -0.94865E-01  -0.87421E-01  -0.94865E-01
       3   0.18124E+01  -0.32804E+00  -0.18763E+00  -0.32804E+00
       4   0.26937E+01  -0.68298E+00  -0.30635E+00  -0.68298E+00
       5   0.35483E+01  -0.11207E+01  -0.45169E+00  -0.11207E+01
       6   0.43829E+01  -0.16232E+01  -0.61711E+00  -0.16232E+01
       7   0.51998E+01  -0.21671E+01  -0.80023E+00  -0.21671E+01
       8   0.60074E+01  -0.27398E+01  -0.99258E+00  -0.27398E+01
       9   0.68090E+01  -0.33279E+01  -0.11910E+01  -0.33279E+01
      10   0.76096E+01  -0.39244E+01  -0.13904E+01  -0.39244E+01
      11   0.84102E+01  -0.45229E+01  -0.15898E+01  -0.45229E+01
      12   0.00000E+00   0.50000E+00   0.00000E+00   0.00000E+00
      13   0.99937E+00   0.40367E+00  -0.63476E-03  -0.96326E-01
      14   0.19706E+01   0.14863E+00  -0.29432E-01  -0.35137E+00
      15   0.29014E+01  -0.22446E+00  -0.98641E-01  -0.72446E+00
      16   0.37925E+01  -0.68239E+00  -0.20745E+00  -0.11824E+01
      17   0.46507E+01  -0.11991E+01  -0.34931E+00  -0.16991E+01
      18   0.54836E+01  -0.17544E+01  -0.51638E+00  -0.22544E+01
      19   0.62999E+01  -0.23336E+01  -0.70009E+00  -0.28336E+01
      20   0.71064E+01  -0.29258E+01  -0.89358E+00  -0.34258E+01
      21   0.79086E+01  -0.35235E+01  -0.10914E+01  -0.40235E+01
      22   0.87095E+01  -0.41224E+01  -0.12905E+01  -0.46224E+01
      23   0.00000E+00   0.10000E+01   0.00000E+00   0.00000E+00
      24   0.10841E+01   0.88865E+00   0.84128E-01  -0.11135E+00
      25   0.21260E+01   0.61881E+00   0.12597E+00  -0.38119E+00
      26   0.31059E+01   0.22745E+00   0.10588E+00  -0.77255E+00
      27   0.40347E+01  -0.24842E+00   0.34695E-01  -0.12484E+01
      28   0.49165E+01  -0.77793E+00  -0.83463E-01  -0.17779E+01
      29   0.57664E+01  -0.13437E+01  -0.23360E+00  -0.23437E+01
      30   0.65917E+01  -0.19285E+01  -0.40831E+00  -0.29285E+01
      31   0.74036E+01  -0.25242E+01  -0.59639E+00  -0.35242E+01
      32   0.82075E+01  -0.31228E+01  -0.79251E+00  -0.41228E+01
      33   0.90089E+01  -0.37220E+01  -0.99107E+00  -0.47220E+01
  __________________________________________________

  _____________________________________________________________________________

            x-coord.     y-coord.     SigmaXX     SigmaYY     SigmaXY
                                        SXX         SYY          SXY
  _____________________________________________________________________________

    1     0.40368E+00  0.18990E+00 -0.61624E+06 -0.85520E+05 -0.28935E+04
                                   -0.55385E+06 -0.69912E+05 -0.42449E+05
    1     0.44762E+00  0.76465E+00  0.61572E+06  0.62001E+05 -0.91851E+05
                                    0.70524E+06  0.77988E+05 -0.49940E+05
    1     0.14889E+01 -0.47267E-02 -0.45596E+06 -0.55359E+04  0.87355E+05
                                   -0.42978E+06  0.23854E+05 -0.36020E+05
    1     0.16373E+01  0.55230E+00  0.45713E+06  0.12605E+05 -0.16443E+06
                                    0.56672E+06 -0.16640E+05 -0.31575E+05
    2     0.22649E+01 -0.26879E+00 -0.33456E+06 -0.45496E+05  0.85909E+05
                                   -0.33296E+06 -0.17529E+05 -0.32994E+05
    2     0.24717E+01  0.26910E+00  0.31153E+06  0.59382E+05 -0.15610E+06
                                    0.41452E+06 -0.74517E+03 -0.31687E+05
    2     0.32880E+01 -0.73594E+00 -0.22884E+06 -0.33249E+05  0.94119E+05
                                   -0.25137E+06  0.74101E+04 -0.24984E+05
    2     0.35525E+01 -0.22291E+00  0.21413E+06  0.82573E+05 -0.13678E+06
                                    0.31596E+06  0.55298E+04 -0.25816E+05
    3     0.40113E+01 -0.11450E+01 -0.15349E+06 -0.28995E+05  0.64237E+05
                                   -0.17157E+06 -0.27474E+04 -0.23437E+05
    3     0.43046E+01 -0.64834E+00  0.13163E+06  0.62966E+05 -0.10326E+06
                                    0.21298E+06 -0.62821E+04 -0.19764E+05
    3     0.49743E+01 -0.17556E+01 -0.98878E+05 -0.21427E+05  0.49784E+05
                                   -0.11813E+06  0.17987E+04 -0.16556E+05
    3     0.52945E+01 -0.12752E+01  0.85697E+05  0.61110E+05 -0.72395E+05
                                    0.14913E+06  0.33944E+04 -0.16547E+05
    4     0.56637E+01 -0.22339E+01 -0.57378E+05 -0.75621E+04  0.26636E+05
                                   -0.65020E+05  0.13834E+04 -0.14412E+05
    4     0.59956E+01 -0.17618E+01  0.44008E+05  0.36286E+05 -0.45951E+05
                                    0.86211E+05 -0.38035E+04 -0.11894E+05
    4     0.65960E+01 -0.29068E+01 -0.31792E+05 -0.32686E+04  0.14237E+05
                                   -0.35111E+05  0.44725E+03 -0.93104E+04
    4     0.69373E+01 -0.24412E+01  0.23900E+05  0.25213E+05 -0.25409E+05
                                    0.49079E+05  0.69935E+03 -0.82712E+04
    5     0.72734E+01 -0.34100E+01 -0.11865E+05  0.40928E+04  0.35282E+04
                                   -0.95231E+04  0.18155E+04 -0.66206E+04
    5     0.76177E+01 -0.29466E+01  0.63896E+04  0.97672E+04 -0.10943E+05
                                    0.18150E+05 -0.18787E+04 -0.47719E+04
    5     0.81983E+01 -0.41003E+01 -0.30499E+04  0.19292E+04  0.45199E+03
                                   -0.16957E+04  0.58022E+03 -0.22595E+04
    5     0.85440E+01 -0.36379E+01  0.14054E+04  0.14629E+04 -0.26816E+04
                                    0.40023E+04 -0.11277E+04 -0.78591E+03
  _____________________________________________________________________________


     Iteration No.  1     Error (root-mean-square value)=  0.7932E-01

     Iteration No.  2     Error (root-mean-square value)=  0.1959E-02

     Iteration No.  3     Error (root-mean-square value)=  0.4147E-03

     S O L U T I O N :


     LOAD, FS................................= -0.1000E+02
  __________________________________________________

     Node    x-coord.      y-coord.     U      V  
  __________________________________________________

       1   0.00000E+00   0.00000E+00   0.00000E+00   0.00000E+00
       2   0.90473E+00  -0.10291E+00  -0.95273E-01  -0.10291E+00
       3   0.17937E+01  -0.35454E+00  -0.20629E+00  -0.35454E+00
       4   0.26593E+01  -0.73701E+00  -0.34069E+00  -0.73701E+00
       5   0.34933E+01  -0.12072E+01  -0.50671E+00  -0.12072E+01
       6   0.43029E+01  -0.17460E+01  -0.69715E+00  -0.17460E+01
       7   0.50915E+01  -0.23280E+01  -0.90849E+00  -0.23280E+01
       8   0.58688E+01  -0.29404E+01  -0.11312E+01  -0.29404E+01
       9   0.66387E+01  -0.35688E+01  -0.13613E+01  -0.35688E+01
      10   0.74072E+01  -0.42060E+01  -0.15928E+01  -0.42060E+01
      11   0.81755E+01  -0.48455E+01  -0.18245E+01  -0.48455E+01
      12   0.00000E+00   0.50000E+00   0.00000E+00   0.00000E+00
      13   0.99922E+00   0.39466E+00  -0.78042E-03  -0.10534E+00
      14   0.19651E+01   0.11756E+00  -0.34865E-01  -0.38244E+00
      15   0.28836E+01  -0.28613E+00  -0.11638E+00  -0.78613E+00
      16   0.37560E+01  -0.77964E+00  -0.24398E+00  -0.12796E+01
      17   0.45902E+01  -0.13347E+01  -0.40979E+00  -0.18347E+01
      18   0.53954E+01  -0.19298E+01  -0.60458E+00  -0.24298E+01
      19   0.61816E+01  -0.25496E+01  -0.81841E+00  -0.30496E+01
      20   0.69566E+01  -0.31826E+01  -0.10434E+01  -0.36826E+01
      21   0.77266E+01  -0.38212E+01  -0.12734E+01  -0.43212E+01
      22   0.84953E+01  -0.44611E+01  -0.15047E+01  -0.49611E+01
      23   0.00000E+00   0.10000E+01   0.00000E+00   0.00000E+00
      24   0.10913E+01   0.87756E+00   0.91318E-01  -0.12244E+00
      25   0.21333E+01   0.58279E+00   0.13332E+00  -0.41721E+00
      26   0.31042E+01   0.15778E+00   0.10423E+00  -0.84222E+00
      27   0.40163E+01  -0.35665E+00   0.16338E-01  -0.13566E+01
      28   0.48753E+01  -0.92654E+00  -0.12468E+00  -0.19265E+01
      29   0.56981E+01  -0.15337E+01  -0.30189E+00  -0.25337E+01
      30   0.64936E+01  -0.21599E+01  -0.50641E+00  -0.31599E+01
      31   0.72742E+01  -0.27969E+01  -0.72583E+00  -0.37969E+01
      32   0.80460E+01  -0.34367E+01  -0.95401E+00  -0.44367E+01
      33   0.88152E+01  -0.40769E+01  -0.11848E+01  -0.50769E+01
  __________________________________________________

  _____________________________________________________________________________

            x-coord.     y-coord.     SigmaXX     SigmaYY     SigmaXY
                                        SXX         SYY          SXY
  _____________________________________________________________________________

    1     0.40224E+00  0.18782E+00 -0.66954E+06 -0.95030E+05 -0.72983E+03
                                   -0.59663E+06 -0.76829E+05 -0.47401E+05
    1     0.45013E+00  0.76207E+00  0.66840E+06  0.67283E+05 -0.10600E+06
                                    0.77638E+06  0.86012E+05 -0.56280E+05
    1     0.14799E+01 -0.23199E-01 -0.48690E+06 -0.11360E+05  0.10407E+06
                                   -0.45979E+06  0.25498E+05 -0.39429E+05
    1     0.16410E+01  0.53016E+00  0.48797E+06  0.21397E+05 -0.18965E+06
                                    0.62144E+06 -0.16474E+05 -0.34260E+05
    2     0.22465E+01 -0.30876E+00 -0.35433E+06 -0.56203E+05  0.10055E+06
                                   -0.35618E+06 -0.20479E+05 -0.36351E+05
    2     0.24702E+01  0.22215E+00  0.32608E+06  0.74217E+05 -0.17829E+06
                                    0.45229E+06 -0.11664E+04 -0.34754E+05
    2     0.32500E+01 -0.81206E+00 -0.23630E+06 -0.43391E+05  0.10850E+06
                                   -0.26757E+06  0.85386E+04 -0.27083E+05
    2     0.35348E+01 -0.31009E+00  0.21946E+06  0.10169E+06 -0.15320E+06
                                    0.34348E+06  0.67765E+04 -0.28067E+05
    3     0.39542E+01 -0.12515E+01 -0.15761E+06 -0.37116E+05  0.73321E+05
                                   -0.18201E+06 -0.35239E+04 -0.25513E+05
    3     0.42693E+01 -0.76847E+00  0.13207E+06  0.77520E+05 -0.11455E+06
                                    0.23078E+06 -0.70116E+04 -0.21170E+05
    3     0.48869E+01 -0.19060E+01 -0.99559E+05 -0.27591E+05  0.56398E+05
                                   -0.12483E+06  0.21393E+04 -0.17795E+05
    3     0.52298E+01 -0.14417E+01  0.85029E+05  0.73545E+05 -0.78989E+05
                                    0.16135E+06  0.38931E+04 -0.17754E+05
    4     0.55513E+01 -0.24178E+01 -0.57820E+05 -0.10557E+05  0.30310E+05
                                   -0.68277E+05  0.13464E+04 -0.15562E+05
    4     0.59065E+01 -0.19630E+01  0.42811E+05  0.43926E+05 -0.49828E+05
                                    0.93348E+05 -0.41409E+04 -0.12595E+05
    4     0.64479E+01 -0.31372E+01 -0.31871E+05 -0.47234E+04  0.16294E+05
                                   -0.36673E+05  0.51570E+03 -0.10010E+05
    4     0.68127E+01 -0.26898E+01  0.23264E+05  0.29955E+05 -0.27256E+05
                                    0.53206E+05  0.79074E+03 -0.87611E+04
    5     0.70983E+01 -0.36749E+01 -0.12025E+05  0.42393E+04  0.43531E+04
                                   -0.96469E+04  0.19335E+04 -0.71693E+04
    5     0.74661E+01 -0.32300E+01  0.60187E+04  0.11718E+05 -0.11652E+05
                                    0.19874E+05 -0.20029E+04 -0.49831E+04
    5     0.79860E+01 -0.44124E+01 -0.32133E+04  0.21121E+04  0.65404E+03
                                   -0.16743E+04  0.57926E+03 -0.24992E+04
    5     0.83552E+01 -0.39686E+01  0.13523E+04  0.17999E+04 -0.29100E+04
                                    0.44020E+04 -0.12425E+04 -0.74785E+03
  _____________________________________________________________________________


     Iteration No.  1     Error (root-mean-square value)=  0.6925E-01

     Iteration No.  2     Error (root-mean-square value)=  0.1726E-02

     Iteration No.  3     Error (root-mean-square value)=  0.2718E-03

     S O L U T I O N :


     LOAD, FS................................= -0.1100E+02
  __________________________________________________

     Node    x-coord.      y-coord.     U      V  
  __________________________________________________

       1   0.00000E+00   0.00000E+00   0.00000E+00   0.00000E+00
       2   0.89725E+00  -0.11054E+00  -0.10275E+00  -0.11054E+00
       3   0.17757E+01  -0.37937E+00  -0.22426E+00  -0.37937E+00
       4   0.26259E+01  -0.78731E+00  -0.37415E+00  -0.78731E+00
       5   0.34394E+01  -0.12871E+01  -0.56060E+00  -0.12871E+01
       6   0.42242E+01  -0.18588E+01  -0.77577E+00  -0.18588E+01
       7   0.49850E+01  -0.24752E+01  -0.10150E+01  -0.24752E+01
       8   0.57323E+01  -0.31230E+01  -0.12677E+01  -0.31230E+01
       9   0.64711E+01  -0.37874E+01  -0.15289E+01  -0.37874E+01
      10   0.72079E+01  -0.44610E+01  -0.17921E+01  -0.44610E+01
      11   0.79443E+01  -0.51369E+01  -0.20557E+01  -0.51369E+01
      12   0.00000E+00   0.50000E+00   0.00000E+00   0.00000E+00
      13   0.99906E+00   0.38597E+00  -0.93831E-03  -0.11403E+00
      14   0.19596E+01   0.88044E-01  -0.40449E-01  -0.41196E+00
      15   0.28655E+01  -0.34417E+00  -0.13446E+00  -0.84417E+00
      16   0.37190E+01  -0.87039E+00  -0.28098E+00  -0.13704E+01
      17   0.45293E+01  -0.14604E+01  -0.47072E+00  -0.19604E+01
      18   0.53070E+01  -0.20914E+01  -0.69305E+00  -0.25914E+01
      19   0.60633E+01  -0.27474E+01  -0.93670E+00  -0.32474E+01
      20   0.68072E+01  -0.34169E+01  -0.11928E+01  -0.39169E+01
      21   0.75455E+01  -0.40921E+01  -0.14545E+01  -0.45921E+01
      22   0.82823E+01  -0.47684E+01  -0.17177E+01  -0.52684E+01
      23   0.00000E+00   0.10000E+01   0.00000E+00   0.00000E+00
      24   0.10981E+01   0.86681E+00   0.98101E-01  -0.13319E+00
      25   0.21397E+01   0.54828E+00   0.13968E+00  -0.45172E+00
      26   0.31010E+01   0.91689E-01   0.10100E+00  -0.90831E+00
      27   0.39959E+01  -0.45839E+00  -0.40772E-02  -0.14584E+01
      28   0.48318E+01  -0.10651E+01  -0.16819E+00  -0.20651E+01
      29   0.56275E+01  -0.17097E+01  -0.37248E+00  -0.27097E+01
      30   0.63934E+01  -0.23730E+01  -0.60664E+00  -0.33730E+01
      31   0.71429E+01  -0.30470E+01  -0.85708E+00  -0.40470E+01
      32   0.78831E+01  -0.37234E+01  -0.11169E+01  -0.47234E+01
      33   0.86204E+01  -0.44002E+01  -0.13796E+01  -0.54002E+01
  __________________________________________________

  _____________________________________________________________________________

            x-coord.     y-coord.     SigmaXX     SigmaYY     SigmaXY
                                        SXX         SYY          SXY
  _____________________________________________________________________________

    1     0.40089E+00  0.18579E+00 -0.71991E+06 -0.10441E+06  0.15247E+04
                                   -0.63639E+06 -0.83639E+05 -0.52413E+05
    1     0.45256E+00  0.75951E+00  0.71800E+06  0.72358E+05 -0.12047E+06
                                    0.84547E+06  0.93842E+05 -0.62723E+05
    1     0.14712E+01 -0.40690E-01 -0.51427E+06 -0.17856E+05  0.12072E+06
                                   -0.48698E+06  0.27001E+05 -0.42711E+05
    1     0.16442E+01  0.50892E+00  0.51518E+06  0.31478E+05 -0.21469E+06
                                    0.67387E+06 -0.15950E+05 -0.36829E+05
    2     0.22285E+01 -0.34633E+00 -0.37113E+06 -0.67475E+05  0.11467E+06
                                   -0.37710E+06 -0.23513E+05 -0.39629E+05
    2     0.24679E+01  0.17749E+00  0.33731E+06  0.90180E+05 -0.19972E+06
                                    0.48802E+06 -0.15883E+04 -0.37716E+05
    2     0.32123E+01 -0.88296E+00 -0.24105E+06 -0.54161E+05  0.12193E+06
                                   -0.28183E+06  0.96766E+04 -0.29053E+05
    2     0.35159E+01 -0.39211E+00  0.22220E+06  0.12165E+06 -0.16818E+06
                                    0.36920E+06  0.80749E+04 -0.30192E+05
    3     0.38975E+01 -0.13501E+01 -0.15993E+06 -0.45521E+05  0.81519E+05
                                   -0.19099E+06 -0.43263E+04 -0.27465E+05
    3     0.42324E+01 -0.88069E+00  0.13075E+06  0.92561E+05 -0.12454E+06
                                    0.24725E+06 -0.77018E+04 -0.22436E+05
    3     0.48001E+01 -0.20442E+01 -0.98932E+05 -0.33946E+05  0.62193E+05
                                   -0.13046E+06  0.24775E+04 -0.18921E+05
    3     0.51637E+01 -0.15959E+01  0.83294E+05  0.86085E+05 -0.84458E+05
                                    0.17260E+06  0.43839E+04 -0.18838E+05
    4     0.54399E+01 -0.25862E+01 -0.57519E+05 -0.13635E+05  0.33509E+05
                                   -0.70878E+05  0.12934E+04 -0.16613E+05
    4     0.58160E+01 -0.21484E+01  0.41047E+05  0.51621E+05 -0.52982E+05
                                    0.99937E+05 -0.44461E+04 -0.13190E+05
    4     0.63013E+01 -0.33471E+01 -0.31525E+05 -0.62202E+04  0.18077E+05
                                   -0.37854E+05  0.58164E+03 -0.10643E+05
    4     0.66871E+01 -0.29177E+01  0.22357E+05  0.34660E+05 -0.28686E+05
                                    0.57028E+05  0.87879E+03 -0.91739E+04
    5     0.69249E+01 -0.39155E+01 -0.12017E+05  0.43484E+04  0.51148E+04
                                   -0.96299E+04  0.20394E+04 -0.76753E+04
    5     0.73138E+01 -0.34889E+01  0.55851E+04  0.13664E+05 -0.12201E+05
                                    0.21512E+05 -0.21080E+04 -0.51431E+04
    5     0.77759E+01 -0.46951E+01 -0.33443E+04  0.22865E+04  0.85753E+03
                                   -0.16211E+04  0.57031E+03 -0.27311E+04
    5     0.81662E+01 -0.42697E+01  0.12855E+04  0.21413E+04 -0.31154E+04
                                    0.47865E+04 -0.13511E+04 -0.69228E+03
  _____________________________________________________________________________


     Iteration No.  1     Error (root-mean-square value)=  0.6097E-01

     Iteration No.  2     Error (root-mean-square value)=  0.1542E-02

     Iteration No.  3     Error (root-mean-square value)=  0.2866E-03

     S O L U T I O N :


     LOAD, FS................................= -0.1200E+02
  __________________________________________________

     Node    x-coord.      y-coord.     U      V  
  __________________________________________________

       1   0.00000E+00   0.00000E+00   0.00000E+00   0.00000E+00
       2   0.89012E+00  -0.11778E+00  -0.10988E+00  -0.11778E+00
       3   0.17585E+01  -0.40268E+00  -0.24154E+00  -0.40268E+00
       4   0.25934E+01  -0.83418E+00  -0.40663E+00  -0.83418E+00
       5   0.33869E+01  -0.13611E+01  -0.61314E+00  -0.13611E+01
       6   0.41474E+01  -0.19625E+01  -0.85258E+00  -0.19625E+01
       7   0.48809E+01  -0.26098E+01  -0.11191E+01  -0.26098E+01
       8   0.55989E+01  -0.32894E+01  -0.14011E+01  -0.32894E+01
       9   0.63073E+01  -0.39859E+01  -0.16927E+01  -0.39859E+01
      10   0.70131E+01  -0.46918E+01  -0.19869E+01  -0.46918E+01
      11   0.77183E+01  -0.54001E+01  -0.22817E+01  -0.54001E+01
      12   0.00000E+00   0.50000E+00   0.00000E+00   0.00000E+00
      13   0.99889E+00   0.37760E+00  -0.11078E-02  -0.12240E+00
      14   0.19539E+01   0.59984E-01  -0.46141E-01  -0.44002E+00
      15   0.28473E+01  -0.39882E+00  -0.15273E+00  -0.89882E+00
      16   0.36819E+01  -0.95512E+00  -0.31811E+00  -0.14551E+01
      17   0.44685E+01  -0.15768E+01  -0.53154E+00  -0.20768E+01
      18   0.52190E+01  -0.22402E+01  -0.78096E+00  -0.27402E+01
      19   0.59461E+01  -0.29287E+01  -0.10539E+01  -0.34287E+01
      20   0.66595E+01  -0.36307E+01  -0.13405E+01  -0.41307E+01
      21   0.73669E+01  -0.43384E+01  -0.16331E+01  -0.48384E+01
      22   0.80725E+01  -0.50472E+01  -0.19275E+01  -0.55472E+01
      23   0.00000E+00   0.10000E+01   0.00000E+00   0.00000E+00
      24   0.11045E+01   0.85638E+00   0.10450E+00  -0.14362E+00
      25   0.21451E+01   0.51520E+00   0.14514E+00  -0.48480E+00
      26   0.30965E+01   0.29011E-01   0.96452E-01  -0.97099E+00
      27   0.39739E+01  -0.55400E+00  -0.26085E-01  -0.15540E+01
      28   0.47867E+01  -0.11943E+01  -0.21327E+00  -0.21943E+01
      29   0.55556E+01  -0.18727E+01  -0.44437E+00  -0.28727E+01
      30   0.62923E+01  -0.25693E+01  -0.70767E+00  -0.35693E+01
      31   0.70115E+01  -0.32763E+01  -0.98852E+00  -0.42763E+01
      32   0.77207E+01  -0.39853E+01  -0.12793E+01  -0.49853E+01
      33   0.84269E+01  -0.46946E+01  -0.15731E+01  -0.56946E+01
  __________________________________________________

  _____________________________________________________________________________

            x-coord.     y-coord.     SigmaXX     SigmaYY     SigmaXY
                                        SXX         SYY          SXY
  _____________________________________________________________________________

    1     0.39963E+00  0.18380E+00 -0.76755E+06 -0.11365E+06  0.38155E+04
                                   -0.67340E+06 -0.90361E+05 -0.57476E+05
    1     0.45491E+00  0.75699E+00  0.76470E+06  0.77253E+05 -0.13521E+06
                                    0.91256E+06  0.10148E+06 -0.69253E+05
    1     0.14629E+01 -0.57273E-01 -0.53839E+06 -0.24882E+05  0.13714E+06
                                   -0.51162E+06  0.28390E+05 -0.45875E+05
    1     0.16470E+01  0.48854E+00  0.53906E+06  0.42710E+05 -0.23935E+06
                                    0.72406E+06 -0.15102E+05 -0.39298E+05
    2     0.22109E+01 -0.38168E+00 -0.38531E+06 -0.79121E+05  0.12810E+06
                                   -0.39593E+06 -0.26605E+05 -0.42824E+05
    2     0.24648E+01  0.13501E+00  0.34559E+06  0.10705E+06 -0.22020E+06
                                    0.52177E+06 -0.20064E+04 -0.40572E+05
    2     0.31753E+01 -0.94904E+00 -0.24349E+06 -0.65311E+05  0.13427E+06
                                   -0.29432E+06  0.10817E+05 -0.30904E+05
    2     0.34960E+01 -0.46927E+00  0.22281E+06  0.14210E+06 -0.18164E+06
                                    0.39320E+06  0.94088E+04 -0.32198E+05
    3     0.38418E+01 -0.14415E+01 -0.16077E+06 -0.53996E+05  0.88771E+05
                                   -0.19864E+06 -0.51421E+04 -0.29298E+05
    3     0.41947E+01 -0.98550E+00  0.12804E+06  0.10781E+06 -0.13319E+06
                                    0.26247E+06 -0.83505E+04 -0.23572E+05
    3     0.47148E+01 -0.21714E+01 -0.97277E+05 -0.40310E+05  0.67137E+05
                                   -0.13512E+06  0.28084E+04 -0.19943E+05
    3     0.50969E+01 -0.17388E+01  0.80772E+05  0.98508E+05 -0.88840E+05
                                    0.18294E+06  0.48617E+04 -0.19806E+05
    4     0.53305E+01 -0.27403E+01 -0.56642E+05 -0.16689E+05  0.36218E+05
                                   -0.72887E+05  0.12283E+04 -0.17573E+05
    4     0.57251E+01 -0.23193E+01  0.38891E+05  0.59231E+05 -0.55447E+05
                                    0.10601E+06 -0.47200E+04 -0.13689E+05
    4     0.61573E+01 -0.35384E+01 -0.30854E+05 -0.76978E+04  0.19576E+05
                                   -0.38695E+05  0.64351E+03 -0.11216E+05
    4     0.65618E+01 -0.31266E+01  0.21274E+05  0.39251E+05 -0.29732E+05
                                    0.60562E+05  0.96199E+03 -0.95160E+04
    5     0.67549E+01 -0.41341E+01 -0.11877E+05  0.44386E+04  0.58027E+04
                                   -0.94883E+04  0.21341E+04 -0.81409E+04
    5     0.71625E+01 -0.37254E+01  0.51186E+04  0.15575E+05 -0.12607E+05
                                    0.23065E+05 -0.21960E+04 -0.52569E+04
    5     0.75700E+01 -0.49512E+01 -0.34485E+04  0.24538E+04  0.10591E+04
                                   -0.15404E+04  0.55361E+03 -0.29551E+04
    5     0.79790E+01 -0.45438E+01  0.12091E+04  0.24816E+04 -0.33005E+04
                                    0.51551E+04 -0.14545E+04 -0.62135E+03
  _____________________________________________________________________________


     Iteration No.  1     Error (root-mean-square value)=  0.5407E-01

     Iteration No.  2     Error (root-mean-square value)=  0.1393E-02

     Iteration No.  3     Error (root-mean-square value)=  0.3786E-03

     S O L U T I O N :


     LOAD, FS................................= -0.1300E+02
  __________________________________________________

     Node    x-coord.      y-coord.     U      V  
  __________________________________________________

       1   0.00000E+00   0.00000E+00   0.00000E+00   0.00000E+00
       2   0.88332E+00  -0.12468E+00  -0.11668E+00  -0.12468E+00
       3   0.17418E+01  -0.42459E+00  -0.25816E+00  -0.42459E+00
       4   0.25619E+01  -0.87794E+00  -0.43813E+00  -0.87794E+00
       5   0.33358E+01  -0.14297E+01  -0.66422E+00  -0.14297E+01
       6   0.40727E+01  -0.20581E+01  -0.92733E+00  -0.20581E+01
       7   0.47797E+01  -0.27331E+01  -0.12203E+01  -0.27331E+01
       8   0.54692E+01  -0.34411E+01  -0.15308E+01  -0.34411E+01
       9   0.61480E+01  -0.41662E+01  -0.18520E+01  -0.41662E+01
      10   0.68238E+01  -0.49009E+01  -0.21762E+01  -0.49009E+01
      11   0.74989E+01  -0.56380E+01  -0.25011E+01  -0.56380E+01
      12   0.00000E+00   0.50000E+00   0.00000E+00   0.00000E+00
      13   0.99871E+00   0.36953E+00  -0.12882E-02  -0.13047E+00
      14   0.19481E+01   0.33278E-01  -0.51904E-01  -0.46672E+00
      15   0.28289E+01  -0.45033E+00  -0.17106E+00  -0.95033E+00
      16   0.36449E+01  -0.10343E+01  -0.35512E+00  -0.15343E+01
      17   0.44082E+01  -0.16848E+01  -0.59181E+00  -0.21848E+01
      18   0.51323E+01  -0.23773E+01  -0.86772E+00  -0.28773E+01
      19   0.58309E+01  -0.30949E+01  -0.11691E+01  -0.35949E+01
      20   0.65148E+01  -0.38259E+01  -0.14852E+01  -0.43259E+01
      21   0.71920E+01  -0.45625E+01  -0.18080E+01  -0.50625E+01
      22   0.78675E+01  -0.53002E+01  -0.21325E+01  -0.58002E+01
      23   0.00000E+00   0.10000E+01   0.00000E+00   0.00000E+00
      24   0.11106E+01   0.84626E+00   0.11055E+00  -0.15374E+00
      25   0.21498E+01   0.48348E+00   0.14981E+00  -0.51652E+00
      26   0.30908E+01  -0.30452E-01   0.90790E-01  -0.10305E+01
      27   0.39507E+01  -0.64388E+00  -0.49298E-01  -0.16439E+01
      28   0.47407E+01  -0.13148E+01  -0.25932E+00  -0.23148E+01
      29   0.54832E+01  -0.20237E+01  -0.51676E+00  -0.30237E+01
      30   0.61915E+01  -0.27500E+01  -0.80848E+00  -0.37500E+01
      31   0.68811E+01  -0.34865E+01  -0.11189E+01  -0.44865E+01
      32   0.75602E+01  -0.42245E+01  -0.14398E+01  -0.52245E+01
      33   0.82362E+01  -0.49627E+01  -0.17638E+01  -0.59627E+01
  __________________________________________________

  _____________________________________________________________________________

            x-coord.     y-coord.     SigmaXX     SigmaYY     SigmaXY
                                        SXX         SYY          SXY
  _____________________________________________________________________________

    1     0.39846E+00  0.18186E+00 -0.81266E+06 -0.12275E+06  0.61014E+04
                                   -0.70791E+06 -0.97007E+05 -0.62584E+05
    1     0.45718E+00  0.75450E+00  0.80869E+06  0.81991E+05 -0.15012E+06
                                    0.97773E+06  0.10893E+06 -0.75856E+05
    1     0.14548E+01 -0.73022E-01 -0.55956E+06 -0.32311E+05  0.15316E+06
                                   -0.53396E+06  0.29691E+05 -0.48930E+05
    1     0.16495E+01  0.46898E+00  0.55992E+06  0.54959E+05 -0.26348E+06
                                    0.77210E+06 -0.13960E+05 -0.41682E+05
    2     0.21937E+01 -0.41500E+00 -0.39717E+06 -0.90972E+05  0.14074E+06
                                   -0.41284E+06 -0.29735E+05 -0.45939E+05
    2     0.24612E+01  0.94572E-01  0.35129E+06  0.12461E+06 -0.23959E+06
                                    0.55364E+06 -0.24171E+04 -0.43325E+05
    2     0.31390E+01 -0.10107E+01 -0.24400E+06 -0.76625E+05  0.14546E+06
                                   -0.30523E+06  0.11955E+05 -0.32644E+05
    2     0.34755E+01 -0.54191E+00  0.22166E+06  0.16277E+06 -0.19356E+06
                                    0.41557E+06  0.10765E+05 -0.34092E+05
    3     0.37871E+01 -0.15262E+01 -0.16041E+06 -0.62366E+05  0.95065E+05
                                   -0.20510E+06 -0.59608E+04 -0.31017E+05
    3     0.41563E+01 -0.10835E+01  0.12426E+06  0.12305E+06 -0.14055E+06
                                    0.27651E+06 -0.89567E+04 -0.24588E+05
    3     0.46313E+01 -0.22886E+01 -0.94843E+05 -0.46534E+05  0.71243E+05
                                   -0.13891E+06  0.31288E+04 -0.20869E+05
    3     0.50300E+01 -0.18713E+01  0.77700E+05  0.11064E+06 -0.92208E+05
                                    0.19241E+06  0.53234E+04 -0.20667E+05
    4     0.52235E+01 -0.28816E+01 -0.55332E+05 -0.19631E+05  0.38447E+05
                                   -0.74364E+05  0.11547E+04 -0.18447E+05
    4     0.56348E+01 -0.24769E+01  0.36484E+05  0.66650E+05 -0.57281E+05
                                    0.11160E+06 -0.49637E+04 -0.14102E+05
    4     0.60168E+01 -0.37129E+01 -0.29944E+05 -0.91064E+04  0.20799E+05
                                   -0.39230E+05  0.70071E+03 -0.11733E+05
    4     0.64380E+01 -0.33182E+01  0.20086E+05  0.43675E+05 -0.30435E+05
                                    0.63827E+05  0.10398E+04 -0.97937E+04
    5     0.65891E+01 -0.43329E+01 -0.11633E+05  0.45268E+04  0.64127E+04
                                   -0.92367E+04  0.22187E+04 -0.85690E+04
    5     0.70133E+01 -0.39415E+01  0.46426E+04  0.17431E+05 -0.12887E+05
                                    0.24537E+05 -0.22683E+04 -0.53297E+04
    5     0.73694E+01 -0.51833E+01 -0.35308E+04  0.26163E+04  0.12565E+04
                                   -0.14356E+04  0.53005E+03 -0.31713E+04
    5     0.77951E+01 -0.47933E+01  0.11267E+04  0.28176E+04 -0.34680E+04
                                    0.55083E+04 -0.15529E+04 -0.53697E+03
  _____________________________________________________________________________


     Iteration No.  1     Error (root-mean-square value)=  0.4827E-01

     Iteration No.  2     Error (root-mean-square value)=  0.1266E-02

     Iteration No.  3     Error (root-mean-square value)=  0.4711E-03

     S O L U T I O N :


     LOAD, FS................................= -0.1400E+02
  __________________________________________________

     Node    x-coord.      y-coord.     U      V  
  __________________________________________________

       1   0.00000E+00   0.00000E+00   0.00000E+00   0.00000E+00
       2   0.87682E+00  -0.13126E+00  -0.12318E+00  -0.13126E+00
       3   0.17259E+01  -0.44525E+00  -0.27414E+00  -0.44525E+00
       4   0.25314E+01  -0.91887E+00  -0.46862E+00  -0.91887E+00
       5   0.32862E+01  -0.14934E+01  -0.71375E+00  -0.14934E+01
       6   0.40002E+01  -0.21463E+01  -0.99984E+00  -0.21463E+01
       7   0.46816E+01  -0.28463E+01  -0.13184E+01  -0.28463E+01
       8   0.53436E+01  -0.35797E+01  -0.16564E+01  -0.35797E+01
       9   0.59939E+01  -0.43302E+01  -0.20061E+01  -0.43302E+01
      10   0.66407E+01  -0.50905E+01  -0.23593E+01  -0.50905E+01
      11   0.72867E+01  -0.58533E+01  -0.27133E+01  -0.58533E+01
      12   0.00000E+00   0.50000E+00   0.00000E+00   0.00000E+00
      13   0.99852E+00   0.36173E+00  -0.14786E-02  -0.13827E+00
      14   0.19423E+01   0.78239E-02  -0.57710E-01  -0.49218E+00
      15   0.28106E+01  -0.49894E+00  -0.18937E+00  -0.99894E+00
      16   0.36082E+01  -0.11084E+01  -0.39181E+00  -0.16084E+01
      17   0.43488E+01  -0.17851E+01  -0.65124E+00  -0.22851E+01
      18   0.50471E+01  -0.25038E+01  -0.95286E+00  -0.30038E+01
      19   0.57182E+01  -0.32475E+01  -0.12818E+01  -0.37475E+01
      20   0.63735E+01  -0.40044E+01  -0.16265E+01  -0.45044E+01
      21   0.70218E+01  -0.47667E+01  -0.19782E+01  -0.52667E+01
      22   0.76681E+01  -0.55301E+01  -0.23319E+01  -0.60301E+01
      23   0.00000E+00   0.10000E+01   0.00000E+00   0.00000E+00
      24   0.11163E+01   0.83643E+00   0.11627E+00  -0.16357E+00
      25   0.21538E+01   0.45306E+00   0.15378E+00  -0.54694E+00
      26   0.30842E+01  -0.86906E-01   0.84206E-01  -0.10869E+01
      27   0.39266E+01  -0.72844E+00  -0.73395E-01  -0.17284E+01
      28   0.46941E+01  -0.14272E+01  -0.30589E+00  -0.24272E+01
      29   0.54110E+01  -0.21636E+01  -0.58902E+00  -0.31636E+01
      30   0.60917E+01  -0.29166E+01  -0.90831E+00  -0.39166E+01
      31   0.67527E+01  -0.36793E+01  -0.12473E+01  -0.46793E+01
      32   0.74028E+01  -0.44433E+01  -0.15972E+01  -0.54433E+01
      33   0.80496E+01  -0.52072E+01  -0.19504E+01  -0.62072E+01
  __________________________________________________

  _____________________________________________________________________________

            x-coord.     y-coord.     SigmaXX     SigmaYY     SigmaXY
                                        SXX         SYY          SXY
  _____________________________________________________________________________

    1     0.39736E+00  0.17996E+00 -0.85542E+06 -0.13170E+06  0.83517E+04
                                   -0.74015E+06 -0.10359E+06 -0.67731E+05
    1     0.45938E+00  0.75203E+00  0.85018E+06  0.86591E+05 -0.16517E+06
                                    0.10411E+07  0.11620E+06 -0.82519E+05
    1     0.14469E+01 -0.88007E-01 -0.57807E+06 -0.40031E+05  0.16872E+06
                                   -0.55422E+06  0.30928E+05 -0.51885E+05
    1     0.16516E+01  0.45017E+00  0.57805E+06  0.68097E+05 -0.28695E+06
                                    0.81808E+06 -0.12554E+05 -0.43995E+05
    2     0.21769E+01 -0.44645E+00 -0.40701E+06 -0.10289E+06  0.15255E+06
                                   -0.42802E+06 -0.32882E+05 -0.48974E+05
    2     0.24571E+01  0.56046E-01  0.35476E+06  0.14268E+06 -0.25784E+06
                                    0.58372E+06 -0.28184E+04 -0.45976E+05
    2     0.31034E+01 -0.10684E+01 -0.24292E+06 -0.87921E+05  0.15548E+06
                                   -0.31470E+06  0.13086E+05 -0.34281E+05
    2     0.34544E+01 -0.61035E+00  0.21912E+06  0.18343E+06 -0.20396E+06
                                    0.43641E+06  0.12133E+05 -0.35883E+05
    3     0.37337E+01 -0.16049E+01 -0.15911E+06 -0.70490E+05  0.10043E+06
                                   -0.21047E+06 -0.67739E+04 -0.32628E+05
    3     0.41178E+01 -0.11751E+01  0.11969E+06  0.13809E+06 -0.14667E+06
                                    0.28944E+06 -0.95204E+04 -0.25496E+05
    3     0.45498E+01 -0.23966E+01 -0.91835E+05 -0.52503E+05  0.74554E+05
                                   -0.14190E+06  0.34365E+04 -0.21707E+05
    3     0.49636E+01 -0.19942E+01  0.74268E+05  0.12236E+06 -0.94655E+05
                                    0.20109E+06  0.57668E+04 -0.21429E+05
    4     0.51193E+01 -0.30113E+01 -0.53709E+05 -0.22395E+05  0.40227E+05
                                   -0.75364E+05  0.10755E+04 -0.19241E+05
    4     0.55456E+01 -0.26224E+01  0.33939E+05  0.73802E+05 -0.58549E+05
                                    0.11674E+06 -0.51788E+04 -0.14438E+05
    4     0.58803E+01 -0.38722E+01 -0.28867E+05 -0.10408E+05  0.21763E+05
                                   -0.39492E+05  0.75285E+03 -0.12200E+05
    4     0.63164E+01 -0.34939E+01  0.18852E+05  0.47896E+05 -0.30840E+05
                                    0.66843E+05  0.11119E+04 -0.10013E+05
    5     0.64282E+01 -0.45139E+01 -0.11313E+05  0.46267E+04  0.69456E+04
                                   -0.88880E+04  0.22944E+04 -0.89624E+04
    5     0.68672E+01 -0.41392E+01  0.41737E+04  0.19218E+05 -0.13062E+05
                                    0.25933E+05 -0.23262E+04 -0.53658E+04
    5     0.71749E+01 -0.53939E+01 -0.35952E+04  0.27759E+04  0.14486E+04
                                   -0.13097E+04  0.50038E+03 -0.33801E+04
    5     0.76154E+01 -0.50208E+01  0.10409E+04  0.31468E+04 -0.36207E+04
                                    0.58468E+04 -0.16466E+04 -0.44088E+03
  _____________________________________________________________________________


     Iteration No.  1     Error (root-mean-square value)=  0.4336E-01

     Iteration No.  2     Error (root-mean-square value)=  0.1155E-02

     Iteration No.  3     Error (root-mean-square value)=  0.5453E-03

     S O L U T I O N :


     LOAD, FS................................= -0.1500E+02
  __________________________________________________

     Node    x-coord.      y-coord.     U      V  
  __________________________________________________

       1   0.00000E+00   0.00000E+00   0.00000E+00   0.00000E+00
       2   0.87060E+00  -0.13755E+00  -0.12940E+00  -0.13755E+00
       3   0.17105E+01  -0.46477E+00  -0.28951E+00  -0.46477E+00
       4   0.25019E+01  -0.95723E+00  -0.49813E+00  -0.95723E+00
       5   0.32383E+01  -0.15526E+01  -0.76173E+00  -0.15526E+01
       6   0.39300E+01  -0.22278E+01  -0.10700E+01  -0.22278E+01
       7   0.45867E+01  -0.29504E+01  -0.14133E+01  -0.29504E+01
       8   0.52223E+01  -0.37065E+01  -0.17777E+01  -0.37065E+01
       9   0.58452E+01  -0.44798E+01  -0.21548E+01  -0.44798E+01
      10   0.64642E+01  -0.52629E+01  -0.25358E+01  -0.52629E+01
      11   0.70822E+01  -0.60485E+01  -0.29178E+01  -0.60485E+01
      12   0.00000E+00   0.50000E+00   0.00000E+00   0.00000E+00
      13   0.99832E+00   0.35418E+00  -0.16783E-02  -0.14582E+00
      14   0.19365E+01  -0.16472E-01  -0.63536E-01  -0.51647E+00
      15   0.27924E+01  -0.54489E+00  -0.20757E+00  -0.10449E+01
      16   0.35720E+01  -0.11778E+01  -0.42804E+00  -0.16778E+01
      17   0.42904E+01  -0.18784E+01  -0.70959E+00  -0.23784E+01
      18   0.49639E+01  -0.26208E+01  -0.10361E+01  -0.31208E+01
      19   0.56085E+01  -0.33878E+01  -0.13915E+01  -0.38878E+01
      20   0.62363E+01  -0.41678E+01  -0.17637E+01  -0.46678E+01
      21   0.68567E+01  -0.49530E+01  -0.21433E+01  -0.54530E+01
      22   0.74750E+01  -0.57392E+01  -0.25250E+01  -0.62392E+01
      23   0.00000E+00   0.10000E+01   0.00000E+00   0.00000E+00
      24   0.11217E+01   0.82687E+00   0.12170E+00  -0.17313E+00
      25   0.21571E+01   0.42384E+00   0.15712E+00  -0.57616E+00
      26   0.30769E+01  -0.14055E+00   0.76857E-01  -0.11406E+01
      27   0.39019E+01  -0.80807E+00  -0.98116E-01  -0.18081E+01
      28   0.46474E+01  -0.15323E+01  -0.35260E+00  -0.25323E+01
      29   0.53393E+01  -0.22935E+01  -0.66068E+00  -0.32935E+01
      30   0.59934E+01  -0.30704E+01  -0.10066E+01  -0.40704E+01
      31   0.66269E+01  -0.38566E+01  -0.13731E+01  -0.48566E+01
      32   0.72491E+01  -0.46436E+01  -0.17509E+01  -0.56436E+01
      33   0.78680E+01  -0.54303E+01  -0.21320E+01  -0.64303E+01
  __________________________________________________

  _____________________________________________________________________________

            x-coord.     y-coord.     SigmaXX     SigmaYY     SigmaXY
                                        SXX         SYY          SXY
  _____________________________________________________________________________

    1     0.39632E+00  0.17810E+00 -0.89602E+06 -0.14049E+06  0.10544E+05
                                   -0.77034E+06 -0.11013E+06 -0.72908E+05
    1     0.46150E+00  0.74960E+00  0.88935E+06  0.91071E+05 -0.18030E+06
                                    0.11027E+07  0.12329E+06 -0.89229E+05
    1     0.14394E+01 -0.10229E+00 -0.59419E+06 -0.47946E+05  0.18373E+06
                                   -0.57261E+06  0.32121E+05 -0.54749E+05
    1     0.16534E+01  0.43208E+00  0.59374E+06  0.82009E+05 -0.30968E+06
                                    0.86212E+06 -0.10911E+05 -0.46248E+05
    2     0.21606E+01 -0.47620E+00 -0.41508E+06 -0.11474E+06  0.16349E+06
                                   -0.44163E+06 -0.36034E+05 -0.51930E+05
    2     0.24525E+01  0.19299E-01  0.35630E+06  0.16111E+06 -0.27489E+06
                                    0.61212E+06 -0.32093E+04 -0.48527E+05
    2     0.30688E+01 -0.11224E+01 -0.24054E+06 -0.99050E+05  0.16436E+06
                                   -0.32287E+06  0.14208E+05 -0.35823E+05
    2     0.34331E+01 -0.67492E+00  0.21548E+06  0.20389E+06 -0.21292E+06
                                    0.45581E+06  0.13504E+05 -0.37575E+05
    3     0.36817E+01 -0.16781E+01 -0.15708E+06 -0.78260E+05  0.10492E+06
                                   -0.21487E+06 -0.75750E+04 -0.34138E+05
    3     0.40793E+01 -0.12609E+01  0.11456E+06  0.15278E+06 -0.15165E+06
                                    0.30135E+06 -0.10043E+05 -0.26303E+05
    3     0.44707E+01 -0.24963E+01 -0.88427E+05 -0.58129E+05  0.77130E+05
                                   -0.14420E+06  0.37300E+04 -0.22465E+05
    3     0.48979E+01 -0.21084E+01  0.70628E+05  0.13358E+06 -0.96284E+05
                                    0.20904E+06  0.61903E+04 -0.22100E+05
    4     0.50183E+01 -0.31305E+01 -0.51871E+05 -0.24933E+05  0.41595E+05
                                   -0.75937E+05  0.99286E+03 -0.19963E+05
    4     0.54579E+01 -0.27569E+01  0.31342E+05  0.80638E+05 -0.59324E+05
                                    0.12147E+06 -0.53669E+04 -0.14703E+05
    4     0.57482E+01 -0.40179E+01 -0.27682E+05 -0.11575E+05  0.22490E+05
                                   -0.39511E+05  0.79970E+03 -0.12620E+05
    4     0.61975E+01 -0.36555E+01  0.17612E+05  0.51891E+05 -0.30994E+05
                                    0.69630E+05  0.11780E+04 -0.10180E+05
    5     0.62726E+01 -0.46790E+01 -0.10937E+05  0.47488E+04  0.74053E+04
                                   -0.84541E+04  0.23621E+04 -0.93238E+04
    5     0.67248E+01 -0.43203E+01  0.37236E+04  0.20928E+05 -0.13148E+05
                                    0.27258E+05 -0.23712E+04 -0.53694E+04
    5     0.69871E+01 -0.55854E+01 -0.36455E+04  0.29343E+04  0.16348E+04
                                   -0.11655E+04  0.46522E+03 -0.35817E+04
    5     0.74408E+01 -0.52284E+01  0.95358E+03  0.34678E+04 -0.37613E+04
                                    0.61714E+04 -0.17362E+04 -0.33459E+03
  _____________________________________________________________________________


     Iteration No.  1     Error (root-mean-square value)=  0.3915E-01

     Iteration No.  2     Error (root-mean-square value)=  0.1056E-02

     Iteration No.  3     Error (root-mean-square value)=  0.5999E-03

     S O L U T I O N :


     LOAD, FS................................= -0.1600E+02
  __________________________________________________

     Node    x-coord.      y-coord.     U      V  
  __________________________________________________

       1   0.00000E+00   0.00000E+00   0.00000E+00   0.00000E+00
       2   0.86464E+00  -0.14358E+00  -0.13536E+00  -0.14358E+00
       3   0.16957E+01  -0.48325E+00  -0.30431E+00  -0.48325E+00
       4   0.24733E+01  -0.99328E+00  -0.52667E+00  -0.99328E+00
       5   0.31919E+01  -0.16079E+01  -0.80814E+00  -0.16079E+01
       6   0.38621E+01  -0.23034E+01  -0.11379E+01  -0.23034E+01
       7   0.44951E+01  -0.30462E+01  -0.15049E+01  -0.30462E+01
       8   0.51054E+01  -0.38227E+01  -0.18946E+01  -0.38227E+01
       9   0.57021E+01  -0.46163E+01  -0.22979E+01  -0.46163E+01
      10   0.62944E+01  -0.54198E+01  -0.27056E+01  -0.54198E+01
      11   0.68857E+01  -0.62258E+01  -0.31143E+01  -0.62258E+01
      12   0.00000E+00   0.50000E+00   0.00000E+00   0.00000E+00
      13   0.99811E+00   0.34687E+00  -0.18868E-02  -0.15313E+00
      14   0.19306E+01  -0.39700E-01  -0.69366E-01  -0.53970E+00
      15   0.27744E+01  -0.58839E+00  -0.22562E+00  -0.10884E+01
      16   0.35363E+01  -0.12429E+01  -0.46371E+00  -0.17429E+01
      17   0.42333E+01  -0.19654E+01  -0.76670E+00  -0.24654E+01
      18   0.48828E+01  -0.27290E+01  -0.11172E+01  -0.32290E+01
      19   0.55019E+01  -0.35170E+01  -0.14981E+01  -0.40170E+01
      20   0.61033E+01  -0.43176E+01  -0.18967E+01  -0.48176E+01
      21   0.66971E+01  -0.51233E+01  -0.23029E+01  -0.56233E+01
      22   0.72887E+01  -0.59299E+01  -0.27113E+01  -0.64299E+01
      23   0.00000E+00   0.10000E+01   0.00000E+00   0.00000E+00
      24   0.11268E+01   0.81758E+00   0.12684E+00  -0.18242E+00
      25   0.21599E+01   0.39576E+00   0.15990E+00  -0.60424E+00
      26   0.30689E+01  -0.19159E+00   0.68876E-01  -0.11916E+01
      27   0.38767E+01  -0.88316E+00  -0.12325E+00  -0.18832E+01
      28   0.46008E+01  -0.16306E+01  -0.39917E+00  -0.26306E+01
      29   0.52686E+01  -0.24142E+01  -0.73139E+00  -0.34142E+01
      30   0.58971E+01  -0.32126E+01  -0.11029E+01  -0.42126E+01
      31   0.65041E+01  -0.40197E+01  -0.14959E+01  -0.50197E+01
      32   0.70997E+01  -0.48272E+01  -0.19003E+01  -0.58272E+01
      33   0.76918E+01  -0.56344E+01  -0.23082E+01  -0.66344E+01
  __________________________________________________

  _____________________________________________________________________________

            x-coord.     y-coord.     SigmaXX     SigmaYY     SigmaXY
                                        SXX         SYY          SXY
  _____________________________________________________________________________

    1     0.39533E+00  0.17627E+00 -0.93463E+06 -0.14914E+06  0.12662E+05
                                   -0.79866E+06 -0.11662E+06 -0.78110E+05
    1     0.46355E+00  0.74719E+00  0.92638E+06  0.95447E+05 -0.19547E+06
                                    0.11627E+07  0.13022E+06 -0.95979E+05
    1     0.14321E+01 -0.11594E+00 -0.60817E+06 -0.55973E+05  0.19817E+06
                                   -0.58930E+06  0.33288E+05 -0.57530E+05
    1     0.16550E+01  0.41465E+00  0.60723E+06  0.96590E+05 -0.33164E+06
                                    0.90431E+06 -0.90561E+04 -0.48453E+05
    2     0.21446E+01 -0.50440E+00 -0.42162E+06 -0.12644E+06  0.17358E+06
                                   -0.45380E+06 -0.39175E+05 -0.54809E+05
    2     0.24477E+01 -0.15795E-01  0.35619E+06  0.17974E+06 -0.29076E+06
                                    0.63893E+06 -0.35895E+04 -0.50981E+05
    2     0.30351E+01 -0.11731E+01 -0.23710E+06 -0.10990E+06  0.17214E+06
                                   -0.32987E+06  0.15318E+05 -0.37277E+05
    2     0.34116E+01 -0.73591E+00  0.21100E+06  0.22401E+06 -0.22053E+06
                                    0.47387E+06  0.14870E+05 -0.39177E+05
    3     0.36311E+01 -0.17464E+01 -0.15448E+06 -0.85597E+05  0.10859E+06
                                   -0.21838E+06 -0.83591E+04 -0.35552E+05
    3     0.40410E+01 -0.13414E+01  0.10906E+06  0.16704E+06 -0.15557E+06
                                    0.31233E+06 -0.10525E+05 -0.27018E+05
    3     0.43939E+01 -0.25887E+01 -0.84755E+05 -0.63352E+05  0.79043E+05
                                   -0.14586E+06  0.40084E+04 -0.23150E+05
    3     0.48333E+01 -0.22146E+01  0.66896E+05  0.14424E+06 -0.97197E+05
                                    0.21632E+06  0.65933E+04 -0.22688E+05
    4     0.49205E+01 -0.32403E+01 -0.49896E+05 -0.27213E+05  0.42596E+05
                                   -0.76129E+05  0.90871E+03 -0.20617E+05
    4     0.53721E+01 -0.28814E+01  0.28759E+05  0.87125E+05 -0.59673E+05
                                    0.12583E+06 -0.55299E+04 -0.14906E+05
    4     0.56206E+01 -0.41515E+01 -0.26433E+05 -0.12590E+05  0.23008E+05
                                   -0.39314E+05  0.84124E+03 -0.12999E+05
    4     0.60817E+01 -0.38043E+01  0.16397E+05  0.55651E+05 -0.30936E+05
                                    0.72208E+05  0.12383E+04 -0.10299E+05
    5     0.61225E+01 -0.48298E+01 -0.10523E+05  0.49012E+04  0.77974E+04
                                   -0.79455E+04  0.24226E+04 -0.96561E+04
    5     0.65865E+01 -0.44865E+01  0.32998E+04  0.22559E+05 -0.13163E+05
                                    0.28518E+05 -0.24045E+04 -0.53443E+04
    5     0.68062E+01 -0.57597E+01 -0.36848E+04  0.30926E+04  0.18150E+04
                                   -0.10054E+04  0.42513E+03 -0.37767E+04
    5     0.72716E+01 -0.54182E+01  0.86583E+03  0.37799E+04 -0.38921E+04
                                    0.64828E+04 -0.18219E+04 -0.21941E+03
  _____________________________________________________________________________


     Iteration No.  1     Error (root-mean-square value)=  0.3553E-01

     Iteration No.  2     Error (root-mean-square value)=  0.9658E-03

     S O L U T I O N :


     LOAD, FS................................= -0.1700E+02
  __________________________________________________

     Node    x-coord.      y-coord.     U      V  
  __________________________________________________

       1   0.00000E+00   0.00000E+00   0.00000E+00   0.00000E+00
       2   0.85925E+00  -0.14913E+00  -0.14075E+00  -0.14913E+00
       3   0.16821E+01  -0.50009E+00  -0.31789E+00  -0.50009E+00
       4   0.24467E+01  -0.10260E+01  -0.55328E+00  -0.10260E+01
       5   0.31483E+01  -0.16579E+01  -0.85173E+00  -0.16579E+01
       6   0.37982E+01  -0.23715E+01  -0.12018E+01  -0.23715E+01
       7   0.44085E+01  -0.31325E+01  -0.15915E+01  -0.31325E+01
       8   0.49948E+01  -0.39272E+01  -0.20052E+01  -0.39272E+01
       9   0.55666E+01  -0.47389E+01  -0.24334E+01  -0.47389E+01
      10   0.61336E+01  -0.55605E+01  -0.28664E+01  -0.55605E+01
      11   0.66994E+01  -0.63845E+01  -0.33006E+01  -0.63845E+01
      12   0.00000E+00   0.50000E+00   0.00000E+00   0.00000E+00
      13   0.99799E+00   0.34008E+00  -0.20130E-02  -0.15992E+00
      14   0.19252E+01  -0.61064E-01  -0.74811E-01  -0.56106E+00
      15   0.27573E+01  -0.62820E+00  -0.24272E+00  -0.11282E+01
      16   0.35024E+01  -0.13023E+01  -0.49762E+00  -0.18023E+01
      17   0.41790E+01  -0.20444E+01  -0.82105E+00  -0.25444E+01
      18   0.48056E+01  -0.28272E+01  -0.11944E+01  -0.33272E+01
      19   0.54004E+01  -0.36338E+01  -0.15996E+01  -0.41338E+01
      20   0.59769E+01  -0.44527E+01  -0.20231E+01  -0.49527E+01
      21   0.65453E+01  -0.52766E+01  -0.24547E+01  -0.57766E+01
      22   0.71114E+01  -0.61013E+01  -0.28886E+01  -0.66013E+01
      23   0.00000E+00   0.10000E+01   0.00000E+00   0.00000E+00
      24   0.11316E+01   0.80890E+00   0.13159E+00  -0.19110E+00
      25   0.21623E+01   0.36978E+00   0.16226E+00  -0.63022E+00
      26   0.30609E+01  -0.23859E+00   0.60883E-01  -0.12386E+01
      27   0.38523E+01  -0.95203E+00  -0.14768E+00  -0.19520E+01
      28   0.45559E+01  -0.17204E+01  -0.44407E+00  -0.27204E+01
      29   0.52007E+01  -0.25241E+01  -0.79929E+00  -0.35241E+01
      30   0.58048E+01  -0.33417E+01  -0.11952E+01  -0.43417E+01
      31   0.63868E+01  -0.41675E+01  -0.16132E+01  -0.51675E+01
      32   0.69569E+01  -0.49932E+01  -0.20431E+01  -0.59932E+01
      33   0.75236E+01  -0.58185E+01  -0.24764E+01  -0.68185E+01
  __________________________________________________

  _____________________________________________________________________________

            x-coord.     y-coord.     SigmaXX     SigmaYY     SigmaXY
                                        SXX         SYY          SXY
  _____________________________________________________________________________

    1     0.39449E+00  0.17456E+00 -0.96832E+06 -0.15666E+06  0.14438E+05
                                   -0.82297E+06 -0.12230E+06 -0.83148E+05
    1     0.46549E+00  0.74492E+00  0.96050E+06  0.99448E+05 -0.21020E+06
                                    0.12196E+07  0.13670E+06 -0.10260E+06
    1     0.14254E+01 -0.12847E+00 -0.61941E+06 -0.63362E+05  0.21124E+06
                                   -0.60345E+06  0.34565E+05 -0.60267E+05
    1     0.16564E+01  0.39852E+00  0.61884E+06  0.11086E+06 -0.35240E+06
                                    0.94424E+06 -0.73984E+04 -0.50551E+05
    2     0.21298E+01 -0.53015E+00 -0.42742E+06 -0.13772E+06  0.18282E+06
                                   -0.46505E+06 -0.42245E+05 -0.57657E+05
    2     0.24429E+01 -0.48118E-01  0.35525E+06  0.19811E+06 -0.30549E+06
                                    0.66459E+06 -0.39797E+04 -0.53343E+05
    2     0.30033E+01 -0.12192E+01 -0.23333E+06 -0.12035E+06  0.17905E+06
                                   -0.33624E+06  0.16423E+05 -0.38689E+05
    2     0.33909E+01 -0.79182E+00  0.20624E+06  0.24354E+06 -0.22714E+06
                                    0.49115E+06  0.16137E+05 -0.40723E+05
    3     0.35832E+01 -0.18084E+01 -0.15184E+06 -0.92558E+05  0.11172E+06
                                   -0.22152E+06 -0.91324E+04 -0.36920E+05
    3     0.40042E+01 -0.14150E+01  0.10360E+06  0.18088E+06 -0.15880E+06
                                    0.32289E+06 -0.10985E+05 -0.27684E+05
    3     0.43212E+01 -0.26722E+01 -0.81135E+05 -0.68249E+05  0.80531E+05
                                   -0.14726E+06  0.42846E+04 -0.23802E+05
    3     0.47715E+01 -0.23113E+01  0.63320E+05  0.15449E+06 -0.97686E+05
                                    0.22336E+06  0.69808E+04 -0.23231E+05
    4     0.48278E+01 -0.33394E+01 -0.47967E+05 -0.29297E+05  0.43375E+05
                                   -0.76182E+05  0.82770E+03 -0.21240E+05
    4     0.52901E+01 -0.29944E+01  0.26322E+05  0.93393E+05 -0.59794E+05
                                    0.13010E+06 -0.56752E+04 -0.15076E+05
    4     0.54996E+01 -0.42717E+01 -0.25219E+05 -0.13494E+05  0.23410E+05
                                   -0.39048E+05  0.88829E+03 -0.13360E+05
    4     0.59712E+01 -0.39389E+01  0.15283E+05  0.59294E+05 -0.30782E+05
                                    0.74765E+05  0.13047E+04 -0.10395E+05
    5     0.59801E+01 -0.49653E+01 -0.10111E+05  0.50778E+04  0.81592E+04
                                   -0.74190E+04  0.24875E+04 -0.99782E+04
    5     0.64546E+01 -0.46366E+01  0.29298E+04  0.24173E+05 -0.13157E+05
                                    0.29801E+05 -0.24238E+04 -0.53048E+04
    5     0.66345E+01 -0.59161E+01 -0.37210E+04  0.32562E+04  0.20008E+04
                                   -0.84179E+03  0.39006E+03 -0.39740E+04
    5     0.71103E+01 -0.55893E+01  0.78989E+03  0.41111E+04 -0.40257E+04
                                    0.68150E+04 -0.18973E+04 -0.10175E+03
  _____________________________________________________________________________


     Iteration No.  1     Error (root-mean-square value)=  0.3306E-01

     Iteration No.  2     Error (root-mean-square value)=  0.9655E-03

     S O L U T I O N :


     LOAD, FS................................= -0.1800E+02
  __________________________________________________

     Node    x-coord.      y-coord.     U      V  
  __________________________________________________

       1   0.00000E+00   0.00000E+00   0.00000E+00   0.00000E+00
       2   0.85378E+00  -0.15468E+00  -0.14622E+00  -0.15468E+00
       3   0.16684E+01  -0.51673E+00  -0.33159E+00  -0.51673E+00
       4   0.24201E+01  -0.10579E+01  -0.57990E+00  -0.10579E+01
       5   0.31050E+01  -0.17062E+01  -0.89500E+00  -0.17062E+01
       6   0.37351E+01  -0.24367E+01  -0.12649E+01  -0.24367E+01
       7   0.43237E+01  -0.32143E+01  -0.16763E+01  -0.32143E+01
       8   0.48868E+01  -0.40255E+01  -0.21132E+01  -0.40255E+01
       9   0.54348E+01  -0.48534E+01  -0.25652E+01  -0.48534E+01
      10   0.59776E+01  -0.56912E+01  -0.30224E+01  -0.56912E+01
      11   0.65191E+01  -0.65315E+01  -0.34809E+01  -0.65315E+01
      12   0.00000E+00   0.50000E+00   0.00000E+00   0.00000E+00
      13   0.99777E+00   0.33321E+00  -0.22270E-02  -0.16679E+00
      14   0.19194E+01  -0.82335E-01  -0.80571E-01  -0.58233E+00
      15   0.27397E+01  -0.66730E+00  -0.26026E+00  -0.11673E+01
      16   0.34681E+01  -0.13599E+01  -0.53185E+00  -0.18599E+01
      17   0.41247E+01  -0.21201E+01  -0.87529E+00  -0.26201E+01
      18   0.47293E+01  -0.29204E+01  -0.12707E+01  -0.34204E+01
      19   0.53008E+01  -0.37440E+01  -0.16992E+01  -0.42440E+01
      20   0.58533E+01  -0.45794E+01  -0.21467E+01  -0.50794E+01
      21   0.63974E+01  -0.54195E+01  -0.26026E+01  -0.59195E+01
      22   0.69392E+01  -0.62604E+01  -0.30608E+01  -0.67604E+01
      23   0.00000E+00   0.10000E+01   0.00000E+00   0.00000E+00
      24   0.11362E+01   0.80012E+00   0.13624E+00  -0.19988E+00
      25   0.21641E+01   0.34382E+00   0.16412E+00  -0.65618E+00
      26   0.30520E+01  -0.28485E+00   0.52022E-01  -0.12849E+01
      27   0.38269E+01  -0.10189E+01  -0.17307E+00  -0.20189E+01
      28   0.45104E+01  -0.18067E+01  -0.48963E+00  -0.28067E+01
      29   0.51328E+01  -0.26288E+01  -0.86722E+00  -0.36288E+01
      30   0.57134E+01  -0.34637E+01  -0.12866E+01  -0.44637E+01
      31   0.62712E+01  -0.43062E+01  -0.17288E+01  -0.53062E+01
      32   0.68171E+01  -0.51483E+01  -0.21829E+01  -0.61483E+01
      33   0.73595E+01  -0.59898E+01  -0.26405E+01  -0.69898E+01
  __________________________________________________

  _____________________________________________________________________________

            x-coord.     y-coord.     SigmaXX     SigmaYY     SigmaXY
                                        SXX         SYY          SXY
  _____________________________________________________________________________

    1     0.39361E+00  0.17281E+00 -0.10031E+07 -0.16492E+06  0.16338E+05
                                   -0.84786E+06 -0.12866E+06 -0.88367E+05
    1     0.46741E+00  0.74258E+00  0.99366E+06  0.10363E+06 -0.22534E+06
                                    0.12765E+07  0.14331E+06 -0.10939E+06
    1     0.14186E+01 -0.14095E+00 -0.62976E+06 -0.71357E+05  0.22441E+06
                                   -0.61720E+06  0.35703E+05 -0.62920E+05
    1     0.16576E+01  0.38234E+00  0.62865E+06  0.12641E+06 -0.37271E+06
                                    0.98307E+06 -0.52127E+04 -0.52680E+05
    2     0.21148E+01 -0.55555E+00 -0.43156E+06 -0.14889E+06  0.19128E+06
                                   -0.47480E+06 -0.45346E+05 -0.60396E+05
    2     0.24375E+01 -0.80170E-01  0.35259E+06  0.21681E+06 -0.31907E+06
                                    0.68858E+06 -0.43298E+04 -0.55617E+05
    2     0.29714E+01 -0.12640E+01 -0.22844E+06 -0.13039E+06  0.18485E+06
                                   -0.34126E+06  0.17501E+05 -0.39989E+05
    2     0.33695E+01 -0.84639E+00  0.20066E+06  0.26265E+06 -0.23235E+06
                                    0.50684E+06  0.17477E+05 -0.42163E+05
    3     0.35357E+01 -0.18680E+01 -0.14853E+06 -0.98884E+05  0.11399E+06
                                   -0.22352E+06 -0.98750E+04 -0.38164E+05
    3     0.39669E+01 -0.14861E+01  0.97757E+05  0.19405E+06 -0.16095E+06
                                    0.33220E+06 -0.11391E+05 -0.28241E+05
    3     0.42495E+01 -0.27517E+01 -0.77235E+05 -0.72561E+05  0.81330E+05
                                   -0.14784E+06  0.45305E+04 -0.24361E+05
    3     0.47097E+01 -0.24037E+01  0.59638E+05  0.16396E+06 -0.97457E+05
                                    0.22944E+06  0.73416E+04 -0.23673E+05
    4     0.47369E+01 -0.34331E+01 -0.45881E+05 -0.31008E+05  0.43764E+05
                                   -0.75723E+05  0.74280E+03 -0.21777E+05
    4     0.52088E+01 -0.31015E+01  0.23884E+05  0.99139E+05 -0.59477E+05
                                    0.13378E+06 -0.57945E+04 -0.15173E+05
    4     0.53814E+01 -0.43844E+01 -0.23938E+05 -0.14175E+05  0.23583E+05
                                   -0.38483E+05  0.91807E+03 -0.13667E+05
    4     0.58624E+01 -0.40656E+01  0.14165E+05  0.62575E+05 -0.30410E+05
                                    0.76966E+05  0.13519E+04 -0.10433E+05
    5     0.58416E+01 -0.50918E+01 -0.96581E+04  0.53050E+04  0.84327E+04
                                   -0.67841E+04  0.25343E+04 -0.10259E+05
    5     0.63254E+01 -0.47771E+01  0.25664E+04  0.25639E+05 -0.13067E+05
                                    0.30936E+05 -0.24388E+04 -0.52312E+04
    5     0.64679E+01 -0.60614E+01 -0.37454E+04  0.34157E+04  0.21686E+04
                                   -0.65567E+03  0.34010E+03 -0.41562E+04
    5     0.69531E+01 -0.57486E+01  0.70134E+03  0.44014E+04 -0.41414E+04
                                    0.70989E+04 -0.19780E+04  0.28252E+02
  _____________________________________________________________________________


     Iteration No.  1     Error (root-mean-square value)=  0.3037E-01

     Iteration No.  2     Error (root-mean-square value)=  0.9023E-03

     S O L U T I O N :


     LOAD, FS................................= -0.1900E+02
  __________________________________________________

     Node    x-coord.      y-coord.     U      V  
  __________________________________________________

       1   0.00000E+00   0.00000E+00   0.00000E+00   0.00000E+00
       2   0.84850E+00  -0.16003E+00  -0.15150E+00  -0.16003E+00
       3   0.16551E+01  -0.53262E+00  -0.34485E+00  -0.53262E+00
       4   0.23943E+01  -0.10882E+01  -0.60570E+00  -0.10882E+01
       5   0.30631E+01  -0.17516E+01  -0.93687E+00  -0.17516E+01
       6   0.36742E+01  -0.24976E+01  -0.13258E+01  -0.24976E+01
       7   0.42420E+01  -0.32903E+01  -0.17580E+01  -0.32903E+01
       8   0.47830E+01  -0.41163E+01  -0.22170E+01  -0.41163E+01
       9   0.53083E+01  -0.49589E+01  -0.26917E+01  -0.49589E+01
      10   0.58280E+01  -0.58112E+01  -0.31720E+01  -0.58112E+01
      11   0.63465E+01  -0.66659E+01  -0.36535E+01  -0.66659E+01
      12   0.00000E+00   0.50000E+00   0.00000E+00   0.00000E+00
      13   0.99755E+00   0.32653E+00  -0.24529E-02  -0.17347E+00
      14   0.19137E+01  -0.10280E+00  -0.86320E-01  -0.60280E+00
      15   0.27224E+01  -0.70455E+00  -0.27759E+00  -0.12045E+01
      16   0.34346E+01  -0.14143E+01  -0.56541E+00  -0.19143E+01
      17   0.40719E+01  -0.21912E+01  -0.92814E+00  -0.26912E+01
      18   0.46552E+01  -0.30073E+01  -0.13448E+01  -0.35073E+01
      19   0.52044E+01  -0.38461E+01  -0.17956E+01  -0.43461E+01
      20   0.57341E+01  -0.46963E+01  -0.22659E+01  -0.51963E+01
      21   0.62551E+01  -0.55511E+01  -0.27449E+01  -0.60511E+01
      22   0.67738E+01  -0.64064E+01  -0.32262E+01  -0.69064E+01
      23   0.00000E+00   0.10000E+01   0.00000E+00   0.00000E+00
      24   0.11407E+01   0.79154E+00   0.14067E+00  -0.20846E+00
      25   0.21656E+01   0.31874E+00   0.16558E+00  -0.68126E+00
      26   0.30428E+01  -0.32909E+00   0.42793E-01  -0.13291E+01
      27   0.38015E+01  -0.10824E+01  -0.19849E+00  -0.20824E+01
      28   0.44654E+01  -0.18878E+01  -0.53458E+00  -0.28878E+01
      29   0.50663E+01  -0.27266E+01  -0.93368E+00  -0.37266E+01
      30   0.56244E+01  -0.35771E+01  -0.13756E+01  -0.45771E+01
      31   0.61593E+01  -0.44346E+01  -0.18407E+01  -0.54346E+01
      32   0.66821E+01  -0.52914E+01  -0.23179E+01  -0.62914E+01
      33   0.72013E+01  -0.61474E+01  -0.27987E+01  -0.71474E+01
  __________________________________________________

  _____________________________________________________________________________

            x-coord.     y-coord.     SigmaXX     SigmaYY     SigmaXY
                                        SXX         SYY          SXY
  _____________________________________________________________________________

    1     0.39277E+00  0.17108E+00 -0.10365E+07 -0.17310E+06  0.18156E+05
                                   -0.87144E+06 -0.13504E+06 -0.93600E+05
    1     0.46927E+00  0.74026E+00  0.10251E+07  0.10776E+06 -0.24048E+06
                                    0.13322E+07  0.14979E+06 -0.11620E+06
    1     0.14119E+01 -0.15297E+00 -0.63859E+06 -0.79321E+05  0.23702E+06
                                   -0.62973E+06  0.36852E+05 -0.65503E+05
    1     0.16586E+01  0.36666E+00  0.63686E+06  0.14241E+06 -0.39222E+06
                                    0.10204E+07 -0.28646E+04 -0.54784E+05
    2     0.21001E+01 -0.57981E+00 -0.43466E+06 -0.15971E+06  0.19895E+06
                                   -0.48345E+06 -0.48408E+05 -0.63059E+05
    2     0.24319E+01 -0.11095E+00  0.34889E+06  0.23543E+06 -0.33155E+06
                                    0.71123E+06 -0.46742E+04 -0.57801E+05
    2     0.29404E+01 -0.13064E+01 -0.22301E+06 -0.13992E+06  0.18975E+06
                                   -0.34541E+06  0.18563E+05 -0.41219E+05
    2     0.33482E+01 -0.89823E+00  0.19475E+06  0.28115E+06 -0.23650E+06
                                    0.52145E+06  0.18799E+05 -0.43526E+05
    3     0.34895E+01 -0.19241E+01 -0.14501E+06 -0.10466E+06  0.11566E+06
                                   -0.22487E+06 -0.10591E+05 -0.39329E+05
    3     0.39300E+01 -0.15531E+01  0.91895E+05  0.20662E+06 -0.16233E+06
                                    0.34075E+06 -0.11764E+05 -0.28725E+05
    3     0.41801E+01 -0.28259E+01 -0.73330E+05 -0.76395E+05  0.81674E+05
                                   -0.14796E+06  0.47609E+04 -0.24865E+05
    3     0.46493E+01 -0.24901E+01  0.56062E+05  0.17282E+06 -0.96784E+05
                                    0.23500E+06  0.76813E+04 -0.24049E+05
    4     0.46491E+01 -0.35201E+01 -0.43801E+05 -0.32426E+05  0.43911E+05
                                   -0.74992E+05  0.66002E+03 -0.22262E+05
    4     0.51297E+01 -0.32013E+01  0.21562E+05  0.10452E+06 -0.58913E+05
                                    0.13718E+06 -0.58936E+04 -0.15225E+05
    4     0.52677E+01 -0.44886E+01 -0.22677E+05 -0.14686E+05  0.23622E+05
                                   -0.37766E+05  0.94306E+03 -0.13943E+05
    4     0.57572E+01 -0.41829E+01  0.13115E+05  0.65629E+05 -0.29929E+05
                                    0.79006E+05  0.13937E+04 -0.10437E+05
    5     0.57084E+01 -0.52083E+01 -0.92010E+04  0.55747E+04  0.86582E+04
                                   -0.60976E+04  0.25762E+04 -0.10518E+05
    5     0.62007E+01 -0.49069E+01  0.22371E+04  0.27027E+05 -0.12942E+05
                                    0.32020E+05 -0.24452E+04 -0.51377E+04
    5     0.63081E+01 -0.61946E+01 -0.37651E+04  0.35780E+04  0.23313E+04
                                   -0.45865E+03  0.28678E+03 -0.43331E+04
    5     0.68016E+01 -0.58952E+01  0.61415E+03  0.46825E+04 -0.42523E+04
                                    0.73720E+04 -0.20558E+04  0.16417E+03
  _____________________________________________________________________________


     Iteration No.  1     Error (root-mean-square value)=  0.2799E-01

     Iteration No.  2     Error (root-mean-square value)=  0.8407E-03

     S O L U T I O N :


     LOAD, FS................................= -0.2000E+02
  __________________________________________________

     Node    x-coord.      y-coord.     U      V  
  __________________________________________________

       1   0.00000E+00   0.00000E+00   0.00000E+00   0.00000E+00
       2   0.84340E+00  -0.16520E+00  -0.15660E+00  -0.16520E+00
       3   0.16423E+01  -0.54781E+00  -0.35767E+00  -0.54781E+00
       4   0.23693E+01  -0.11169E+01  -0.63069E+00  -0.11169E+01
       5   0.30226E+01  -0.17944E+01  -0.97736E+00  -0.17944E+01
       6   0.36154E+01  -0.25546E+01  -0.13846E+01  -0.25546E+01
       7   0.41633E+01  -0.33610E+01  -0.18367E+01  -0.33610E+01
       8   0.46833E+01  -0.42004E+01  -0.23167E+01  -0.42004E+01
       9   0.51870E+01  -0.50561E+01  -0.28130E+01  -0.50561E+01
      10   0.56848E+01  -0.59215E+01  -0.33152E+01  -0.59215E+01
      11   0.61812E+01  -0.67892E+01  -0.38188E+01  -0.67892E+01
      12   0.00000E+00   0.50000E+00   0.00000E+00   0.00000E+00
      13   0.99731E+00   0.32001E+00  -0.26862E-02  -0.17999E+00
      14   0.19080E+01  -0.12250E+00  -0.92039E-01  -0.62250E+00
      15   0.27053E+01  -0.74006E+00  -0.29467E+00  -0.12401E+01
      16   0.34017E+01  -0.14658E+01  -0.59825E+00  -0.19658E+01
      17   0.40204E+01  -0.22579E+01  -0.97958E+00  -0.27579E+01
      18   0.45835E+01  -0.30884E+01  -0.14165E+01  -0.35884E+01
      19   0.51114E+01  -0.39410E+01  -0.18886E+01  -0.44410E+01
      20   0.56193E+01  -0.48045E+01  -0.23807E+01  -0.53045E+01
      21   0.61184E+01  -0.56723E+01  -0.28816E+01  -0.61723E+01
      22   0.66150E+01  -0.65407E+01  -0.33850E+01  -0.70407E+01
      23   0.00000E+00   0.10000E+01   0.00000E+00   0.00000E+00
      24   0.11449E+01   0.78316E+00   0.14491E+00  -0.21684E+00
      25   0.21667E+01   0.29450E+00   0.16668E+00  -0.70550E+00
      26   0.30333E+01  -0.37141E+00   0.33280E-01  -0.13714E+01
      27   0.37762E+01  -0.11425E+01  -0.22383E+00  -0.21425E+01
      28   0.44212E+01  -0.19643E+01  -0.57880E+00  -0.29643E+01
      29   0.50014E+01  -0.28181E+01  -0.99856E+00  -0.38181E+01
      30   0.55381E+01  -0.36827E+01  -0.14619E+01  -0.46827E+01
      31   0.60511E+01  -0.45537E+01  -0.19489E+01  -0.55537E+01
      32   0.65519E+01  -0.54237E+01  -0.24481E+01  -0.64237E+01
      33   0.70490E+01  -0.62927E+01  -0.29510E+01  -0.72927E+01
  __________________________________________________

  _____________________________________________________________________________

            x-coord.     y-coord.     SigmaXX     SigmaYY     SigmaXY
                                        SXX         SYY          SXY
  _____________________________________________________________________________

    1     0.39197E+00  0.16938E+00 -0.10685E+07 -0.18114E+06  0.19875E+05
                                   -0.89375E+06 -0.14140E+06 -0.98837E+05
    1     0.47109E+00  0.73797E+00  0.10551E+07  0.11182E+06 -0.25558E+06
                                    0.13866E+07  0.15615E+06 -0.12303E+06
    1     0.14055E+01 -0.16454E+00 -0.64604E+06 -0.87193E+05  0.24905E+06
                                   -0.64114E+06  0.38020E+05 -0.68029E+05
    1     0.16594E+01  0.35149E+00  0.64365E+06  0.15876E+06 -0.41091E+06
                                    0.10562E+07 -0.38029E+03 -0.56868E+05
    2     0.20858E+01 -0.60297E+00 -0.43690E+06 -0.17015E+06  0.20590E+06
                                   -0.49111E+06 -0.51431E+05 -0.65653E+05
    2     0.24261E+01 -0.14052E+00  0.34434E+06  0.25390E+06 -0.34299E+06
                                    0.73268E+06 -0.50102E+04 -0.59898E+05
    2     0.29103E+01 -0.13465E+01 -0.21720E+06 -0.14894E+06  0.19384E+06
                                   -0.34878E+06  0.19609E+05 -0.42384E+05
    2     0.33270E+01 -0.94752E+00  0.18863E+06  0.29901E+06 -0.23969E+06
                                    0.53507E+06  0.20099E+05 -0.44820E+05
    3     0.34446E+01 -0.19768E+01 -0.14137E+06 -0.10989E+06  0.11680E+06
                                   -0.22564E+06 -0.11280E+05 -0.40421E+05
    3     0.38938E+01 -0.16164E+01  0.86091E+05  0.21859E+06 -0.16307E+06
                                    0.34865E+06 -0.12104E+05 -0.29145E+05
    3     0.41130E+01 -0.28951E+01 -0.69471E+05 -0.79755E+05  0.81631E+05
                                   -0.14767E+06  0.49764E+04 -0.25320E+05
    3     0.45905E+01 -0.25711E+01  0.52627E+05  0.18109E+06 -0.95746E+05
                                    0.24010E+06  0.80014E+04 -0.24368E+05
    4     0.45645E+01 -0.36010E+01 -0.41754E+05 -0.33559E+05  0.43855E+05
                                   -0.74022E+05  0.57995E+03 -0.22701E+05
    4     0.50530E+01 -0.32944E+01  0.19369E+05  0.10955E+06 -0.58148E+05
                                    0.14033E+06 -0.59745E+04 -0.15238E+05
    4     0.51584E+01 -0.45849E+01 -0.21450E+05 -0.15031E+05  0.23549E+05
                                   -0.36915E+05  0.96383E+03 -0.14192E+05
    4     0.56555E+01 -0.42918E+01  0.12135E+05  0.68470E+05 -0.29365E+05
                                    0.80906E+05  0.14307E+04 -0.10411E+05
    5     0.55806E+01 -0.53157E+01 -0.87463E+04  0.58866E+04  0.88430E+04
                                   -0.53672E+04  0.26139E+04 -0.10757E+05
    5     0.60804E+01 -0.50270E+01  0.19418E+04  0.28345E+05 -0.12793E+05
                                    0.33058E+05 -0.24437E+04 -0.50266E+04
    5     0.61549E+01 -0.63171E+01 -0.37815E+04  0.37433E+04  0.24898E+04
                                   -0.25255E+03  0.23067E+03 -0.45051E+04
    5     0.66559E+01 -0.60303E+01  0.52862E+03  0.49557E+04 -0.43601E+04
                                    0.76361E+04 -0.21308E+04  0.30508E+03
  _____________________________________________________________________________


     Iteration No.  1     Error (root-mean-square value)=  0.2588E-01

     Iteration No.  2     Error (root-mean-square value)=  0.7837E-03

     S O L U T I O N :


     LOAD, FS................................= -0.2100E+02
  __________________________________________________

     Node    x-coord.      y-coord.     U      V  
  __________________________________________________

       1   0.00000E+00   0.00000E+00   0.00000E+00   0.00000E+00
       2   0.83848E+00  -0.17021E+00  -0.16152E+00  -0.17021E+00
       3   0.16299E+01  -0.56234E+00  -0.37009E+00  -0.56234E+00
       4   0.23451E+01  -0.11442E+01  -0.65490E+00  -0.11442E+01
       5   0.29835E+01  -0.18347E+01  -0.10165E+01  -0.18347E+01
       6   0.35587E+01  -0.26080E+01  -0.14413E+01  -0.26080E+01
       7   0.40875E+01  -0.34269E+01  -0.19125E+01  -0.34269E+01
       8   0.45875E+01  -0.42785E+01  -0.24125E+01  -0.42785E+01
       9   0.50707E+01  -0.51460E+01  -0.29293E+01  -0.51460E+01
      10   0.55476E+01  -0.60231E+01  -0.34524E+01  -0.60231E+01
      11   0.60231E+01  -0.69025E+01  -0.39769E+01  -0.69025E+01
      12   0.00000E+00   0.50000E+00   0.00000E+00   0.00000E+00
      13   0.99707E+00   0.31366E+00  -0.29260E-02  -0.18634E+00
      14   0.19023E+01  -0.14148E+00  -0.97722E-01  -0.64148E+00
      15   0.26885E+01  -0.77397E+00  -0.31149E+00  -0.12740E+01
      16   0.33696E+01  -0.15145E+01  -0.63036E+00  -0.20145E+01
      17   0.39704E+01  -0.23207E+01  -0.10296E+01  -0.28207E+01
      18   0.45140E+01  -0.31643E+01  -0.14860E+01  -0.36643E+01
      19   0.50216E+01  -0.40293E+01  -0.19784E+01  -0.45293E+01
      20   0.55088E+01  -0.49048E+01  -0.24912E+01  -0.54048E+01
      21   0.59870E+01  -0.57844E+01  -0.30130E+01  -0.62844E+01
      22   0.64627E+01  -0.66644E+01  -0.35373E+01  -0.71644E+01
      23   0.00000E+00   0.10000E+01   0.00000E+00   0.00000E+00
      24   0.11490E+01   0.77497E+00   0.14897E+00  -0.22503E+00
      25   0.21675E+01   0.27107E+00   0.16746E+00  -0.72893E+00
      26   0.30235E+01  -0.41194E+00   0.23540E-01  -0.14119E+01
      27   0.37510E+01  -0.11996E+01  -0.24902E+00  -0.21996E+01
      28   0.43778E+01  -0.20364E+01  -0.62223E+00  -0.30364E+01
      29   0.49382E+01  -0.29040E+01  -0.10618E+01  -0.39040E+01
      30   0.54543E+01  -0.37813E+01  -0.15457E+01  -0.47813E+01
      31   0.59465E+01  -0.46645E+01  -0.20535E+01  -0.56645E+01
      32   0.64263E+01  -0.55462E+01  -0.25737E+01  -0.65462E+01
      33   0.69025E+01  -0.64270E+01  -0.30975E+01  -0.74270E+01
  __________________________________________________

  _____________________________________________________________________________

            x-coord.     y-coord.     SigmaXX     SigmaYY     SigmaXY
                                        SXX         SYY          SXY
  _____________________________________________________________________________

    1     0.39120E+00  0.16771E+00 -0.10991E+07 -0.18907E+06  0.21495E+05
                                   -0.91489E+06 -0.14776E+06 -0.10408E+06
    1     0.47284E+00  0.73569E+00  0.10835E+07  0.11583E+06 -0.27064E+06
                                    0.14399E+07  0.16239E+06 -0.12986E+06
    1     0.13992E+01 -0.17569E+00 -0.65225E+06 -0.94943E+05  0.26053E+06
                                   -0.65151E+06  0.39214E+05 -0.70503E+05
    1     0.16600E+01  0.33677E+00  0.64918E+06  0.17541E+06 -0.42881E+06
                                    0.10908E+07  0.22258E+04 -0.58937E+05
    2     0.20718E+01 -0.62514E+00 -0.43840E+06 -0.18019E+06  0.21216E+06
                                   -0.49789E+06 -0.54410E+05 -0.68180E+05
    2     0.24202E+01 -0.16895E+00  0.33908E+06  0.27217E+06 -0.35343E+06
                                    0.75301E+06 -0.53382E+04 -0.61913E+05
    2     0.28809E+01 -0.13845E+01 -0.21111E+06 -0.15742E+06  0.19719E+06
                                   -0.35146E+06  0.20639E+05 -0.43488E+05
    2     0.33060E+01 -0.99445E+00  0.18241E+06  0.31621E+06 -0.24202E+06
                                    0.54779E+06  0.21376E+05 -0.46048E+05
    3     0.34012E+01 -0.20264E+01 -0.13766E+06 -0.11457E+06  0.11748E+06
                                   -0.22589E+06 -0.11942E+05 -0.41446E+05
    3     0.38583E+01 -0.16763E+01  0.80398E+05  0.22995E+06 -0.16323E+06
                                    0.35593E+06 -0.12413E+05 -0.29506E+05
    3     0.40483E+01 -0.29600E+01 -0.65697E+05 -0.82651E+05  0.81259E+05
                                   -0.14702E+06  0.51776E+04 -0.25729E+05
    3     0.45331E+01 -0.26472E+01  0.49353E+05  0.18880E+06 -0.94409E+05
                                    0.24478E+06  0.83025E+04 -0.24633E+05
    4     0.44829E+01 -0.36764E+01 -0.39759E+05 -0.34414E+05  0.43629E+05
                                   -0.72838E+05  0.50302E+03 -0.23098E+05
    4     0.49785E+01 -0.33814E+01  0.17312E+05  0.11424E+06 -0.57224E+05
                                    0.14324E+06 -0.60384E+04 -0.15214E+05
    4     0.50533E+01 -0.46742E+01 -0.20266E+05 -0.15216E+05  0.23386E+05
                                   -0.35947E+05  0.98063E+03 -0.14417E+05
    4     0.55572E+01 -0.43931E+01  0.11227E+05  0.71111E+05 -0.28740E+05
                                    0.82679E+05  0.14634E+04 -0.10357E+05
    5     0.54579E+01 -0.54149E+01 -0.82988E+04  0.62406E+04  0.89930E+04
                                   -0.45983E+04  0.26480E+04 -0.10979E+05
    5     0.59644E+01 -0.51383E+01  0.16791E+04  0.29596E+05 -0.12627E+05
                                    0.34054E+05 -0.24353E+04 -0.49001E+04
    5     0.60081E+01 -0.64298E+01 -0.37957E+04  0.39117E+04  0.26446E+04
                                   -0.38594E+02  0.17209E+03 -0.46727E+04
    5     0.65158E+01 -0.61552E+01  0.44470E+03  0.52216E+04 -0.44657E+04
                                    0.78921E+04 -0.22032E+04  0.45034E+03
  _____________________________________________________________________________


     Iteration No.  1     Error (root-mean-square value)=  0.2401E-01

     Iteration No.  2     Error (root-mean-square value)=  0.7311E-03

     S O L U T I O N :


     LOAD, FS................................= -0.2200E+02
  __________________________________________________

     Node    x-coord.      y-coord.     U      V  
  __________________________________________________

       1   0.00000E+00   0.00000E+00   0.00000E+00   0.00000E+00
       2   0.83371E+00  -0.17505E+00  -0.16629E+00  -0.17505E+00
       3   0.16179E+01  -0.57628E+00  -0.38211E+00  -0.57628E+00
       4   0.23216E+01  -0.11701E+01  -0.67839E+00  -0.11701E+01
       5   0.29456E+01  -0.18729E+01  -0.10544E+01  -0.18729E+01
       6   0.35039E+01  -0.26582E+01  -0.14961E+01  -0.26582E+01
       7   0.40146E+01  -0.34885E+01  -0.19854E+01  -0.34885E+01
       8   0.44955E+01  -0.43511E+01  -0.25045E+01  -0.43511E+01
       9   0.49591E+01  -0.52293E+01  -0.30409E+01  -0.52293E+01
      10   0.54162E+01  -0.61170E+01  -0.35838E+01  -0.61170E+01
      11   0.58718E+01  -0.70068E+01  -0.41282E+01  -0.70068E+01
      12   0.00000E+00   0.50000E+00   0.00000E+00   0.00000E+00
      13   0.99683E+00   0.30745E+00  -0.31722E-02  -0.19255E+00
      14   0.18966E+01  -0.15980E+00  -0.10337E+00  -0.65980E+00
      15   0.26720E+01  -0.80640E+00  -0.32803E+00  -0.13064E+01
      16   0.33382E+01  -0.15608E+01  -0.66175E+00  -0.20608E+01
      17   0.39218E+01  -0.23798E+01  -0.10782E+01  -0.28798E+01
      18   0.44468E+01  -0.32354E+01  -0.15532E+01  -0.37354E+01
      19   0.49351E+01  -0.41117E+01  -0.20649E+01  -0.46117E+01
      20   0.54025E+01  -0.49980E+01  -0.25975E+01  -0.54980E+01
      21   0.58608E+01  -0.58882E+01  -0.31392E+01  -0.63882E+01
      22   0.63167E+01  -0.67787E+01  -0.36833E+01  -0.72787E+01
      23   0.00000E+00   0.10000E+01   0.00000E+00   0.00000E+00
      24   0.11529E+01   0.76696E+00   0.15285E+00  -0.23304E+00
      25   0.21679E+01   0.24838E+00   0.16795E+00  -0.75162E+00
      26   0.30136E+01  -0.45081E+00   0.13619E-01  -0.14508E+01
      27   0.37260E+01  -0.12540E+01  -0.27401E+00  -0.22540E+01
      28   0.43352E+01  -0.21045E+01  -0.66483E+00  -0.31045E+01
      29   0.48766E+01  -0.29846E+01  -0.11234E+01  -0.39846E+01
      30   0.53732E+01  -0.38734E+01  -0.16268E+01  -0.48734E+01
      31   0.58454E+01  -0.47676E+01  -0.21546E+01  -0.57676E+01
      32   0.63054E+01  -0.56599E+01  -0.26946E+01  -0.66599E+01
      33   0.67617E+01  -0.65512E+01  -0.32383E+01  -0.75512E+01
  __________________________________________________

  _____________________________________________________________________________

            x-coord.     y-coord.     SigmaXX     SigmaYY     SigmaXY
                                        SXX         SYY          SXY
  _____________________________________________________________________________

    1     0.39046E+00  0.16606E+00 -0.11285E+07 -0.19687E+06  0.23015E+05
                                   -0.93494E+06 -0.15411E+06 -0.10931E+06
    1     0.47455E+00  0.73344E+00  0.11106E+07  0.11980E+06 -0.28563E+06
                                    0.14921E+07  0.16851E+06 -0.13669E+06
    1     0.13931E+01 -0.18645E+00 -0.65735E+06 -0.10255E+06  0.27146E+06
                                   -0.66095E+06  0.40441E+05 -0.72929E+05
    1     0.16605E+01  0.32248E+00  0.65356E+06  0.19231E+06 -0.44592E+06
                                    0.11240E+07  0.49411E+04 -0.60994E+05
    2     0.20582E+01 -0.64639E+00 -0.43926E+06 -0.18981E+06  0.21778E+06
                                   -0.50384E+06 -0.57343E+05 -0.70643E+05
    2     0.24142E+01 -0.19633E+00  0.33323E+06  0.29019E+06 -0.36295E+06
                                    0.77229E+06 -0.56590E+04 -0.63847E+05
    2     0.28524E+01 -0.14207E+01 -0.20483E+06 -0.16534E+06  0.19987E+06
                                   -0.35350E+06  0.21651E+05 -0.44536E+05
    2     0.32851E+01 -0.10392E+01  0.17614E+06  0.33274E+06 -0.24358E+06
                                    0.55968E+06  0.22629E+05 -0.47215E+05
    3     0.33590E+01 -0.20733E+01 -0.13393E+06 -0.11872E+06  0.11776E+06
                                   -0.22567E+06 -0.12576E+05 -0.42408E+05
    3     0.38234E+01 -0.17330E+01  0.74857E+05  0.24070E+06 -0.16290E+06
                                    0.36265E+06 -0.12694E+05 -0.29812E+05
    3     0.39857E+01 -0.30208E+01 -0.62033E+05 -0.85096E+05  0.80609E+05
                                   -0.14604E+06  0.53650E+04 -0.26098E+05
    3     0.44772E+01 -0.27187E+01  0.46253E+05  0.19598E+06 -0.92830E+05
                                    0.24907E+06  0.85853E+04 -0.24849E+05
    4     0.44044E+01 -0.37467E+01 -0.37830E+05 -0.35002E+05  0.43262E+05
                                   -0.71465E+05  0.42950E+03 -0.23456E+05
    4     0.49064E+01 -0.34629E+01  0.15393E+05  0.11861E+06 -0.56175E+05
                                    0.14594E+06 -0.60870E+04 -0.15158E+05
    4     0.49523E+01 -0.47572E+01 -0.19133E+05 -0.15247E+05  0.23149E+05
                                   -0.34873E+05  0.99375E+03 -0.14620E+05
    4     0.54624E+01 -0.44874E+01  0.10391E+05  0.73565E+05 -0.28070E+05
                                    0.84336E+05  0.14918E+04 -0.10278E+05
    5     0.53402E+01 -0.55069E+01 -0.78618E+04  0.66358E+04  0.91136E+04
                                   -0.37956E+04  0.26788E+04 -0.11184E+05
    5     0.58528E+01 -0.52417E+01  0.14472E+04  0.30786E+05 -0.12450E+05
                                    0.35014E+05 -0.24206E+04 -0.47598E+04
    5     0.58675E+01 -0.65340E+01 -0.38086E+04  0.40833E+04  0.27963E+04
                                    0.18220E+03  0.11133E+03 -0.48363E+04
    5     0.63812E+01 -0.62708E+01  0.36229E+03  0.54808E+04 -0.45698E+04
                                    0.81404E+04 -0.22732E+04  0.59937E+03
  _____________________________________________________________________________

