     *** ECHO OF THE INPUT DATA STARTS ***

    Example 9.6.5: BENDING OF A CANTILEVER BEAM UNDER UDL (5 EIGHT-NODE)        
    8   2   2   1   0   1   2   1          NPE,NGPF,NGPR,MESH,NPRNT,IGRAD,NONLIN
                                                                                
    5   1                                NX,NY                                  
    0.0  2.0  2.0  2.0  2.0  2.0         X0,(DX(I),I=1,NX)                      
    0.0  1.0                             Y0,(DY(I),I=1,NY)                      
                                                                                
    6                                    NSPV and next lines ISPV, VSPV         
    1 1  1 2  12 1  12 2  18 1  18 2     ISPV                                   
    0.0  0.0  0.0   0.0   0.0   0.0      VSPV                                   
                                                                                
    22                                   NSSV and next lines ISSV, VSSV         
     1 2   2 2   3 2   4 2   5 2   6 2   7 2   8 2   9 2  10 2  11 2            
    18 2  19 2  20 2  21 2  22 2  23 2  24 2  25 2  26 2  27 2  28 2  ISSV      
    8.333 33.333 16.667 33.333 16.667 33.333 16.667 33.333 16.667 33.333 8.333  
    8.333 33.333 16.667 33.333 16.667 33.333 16.667 33.333 16.667 33.333 8.333  
                                                                                
    2                                    LFORM                                  
    10.0  1.0  0.1                       A,B,THIKNS                             
    1.2E+07  0.3                         E,ANU                                  
                                                                                
    32   10   0.001   0.0                NLS,ITMAX,EPS,REX                      
    -1.0 -1.0 -1.0 -1.0 -1.0 -1.0 -1.0 -1.0 -1.0 -1.0                           
    -1.0 -1.0 -1.0 -1.0 -1.0 -1.0 -1.0 -1.0 -1.0 -1.0                           
    -1.0 -1.0 -1.0 -1.0 -1.0 -1.0 -1.0 -1.0 -1.0 -1.0                           
    -1.0 -1.0                            DP(I)                                  

     **** ECHO OF THE INPUT DATA ENDS ****

    Example 9.6.5: BENDING OF A CANTILEVER BEAM UNDER UDL (5 EIGHT-NODE)        
  ______________________________________________________________________

            OUTPUT FROM PROGRAM  *FEM2DUNSYM*  BY J.N. REDDY
  ______________________________________________________________________


     NONLINEAR ANALYSIS DATA:

        Number of load steps, NLS ...............=  32
        Max. no. of iterations allowed, ITMAX ...=  10
        Type of iter. method used (1: DI; >1 NR).=   2
        Error tolerance, EPS ....................=  0.1000E-02
        Acceleration parameter, REX .............=  0.0000E+00


        *** A mesh of QUADRILATERALS is chosen by user ***

     FINITE ELEMENT MESH INFORMATION:

        Element type: 1 = LINEAR; 2=QUADRATIC)...=   2
        Number of nodes per element, NPE ........=   8
        No. of primary deg. of freedom/node, NDF =   2
        Number of elements in the mesh, NEM .....=   5
        Number of nodes in the mesh, NNM ........=  28
        Number of equations to be solved, NEQ ...=  56
        Half bandwidth of the matrix GLK, NHBW ..=  40
        Mesh subdivisions, NX and NY ............=   5   1

        No. of specified PRIMARY variables, NSPV =   6
        No. of speci.  SECONDARY variables, NSSV =  22

      Node  DOF     Value

         1   2   0.83330E+01
         2   2   0.33333E+02
         3   2   0.16667E+02
         4   2   0.33333E+02
         5   2   0.16667E+02
         6   2   0.33333E+02
         7   2   0.16667E+02
         8   2   0.33333E+02
         9   2   0.16667E+02
        10   2   0.33333E+02
        11   2   0.83330E+01
        18   2   0.83330E+01
        19   2   0.33333E+02
        20   2   0.16667E+02
        21   2   0.33333E+02
        22   2   0.16667E+02
        23   2   0.33333E+02
        24   2   0.16667E+02
        25   2   0.33333E+02
        26   2   0.16667E+02
        27   2   0.33333E+02
        28   2   0.83330E+01
  ______________________________________________________________________

     Node   x-coord.   y-coord.    Speci. primary & secondary variables
                                      (0, unspecified; >0, specified)
                                         Primary DOF  Secondary DOF
  ______________________________________________________________________

       1  0.0000E+00  0.0000E+00            1    2        0    2
       2  0.1000E+01  0.0000E+00            0    0        0    2
       3  0.2000E+01  0.0000E+00            0    0        0    2
       4  0.3000E+01  0.0000E+00            0    0        0    2
       5  0.4000E+01  0.0000E+00            0    0        0    2
       6  0.5000E+01  0.0000E+00            0    0        0    2
       7  0.6000E+01  0.0000E+00            0    0        0    2
       8  0.7000E+01  0.0000E+00            0    0        0    2
       9  0.8000E+01  0.0000E+00            0    0        0    2
      10  0.9000E+01  0.0000E+00            0    0        0    2
      11  0.1000E+02  0.0000E+00            0    0        0    2
      12  0.0000E+00  0.5000E+00            1    2        0    0
      13  0.2000E+01  0.5000E+00            0    0        0    0
      14  0.4000E+01  0.5000E+00            0    0        0    0
      15  0.6000E+01  0.5000E+00            0    0        0    0
      16  0.8000E+01  0.5000E+00            0    0        0    0
      17  0.1000E+02  0.5000E+00            0    0        0    0
      18  0.0000E+00  0.1000E+01            1    2        0    2
      19  0.1000E+01  0.1000E+01            0    0        0    2
      20  0.2000E+01  0.1000E+01            0    0        0    2
      21  0.3000E+01  0.1000E+01            0    0        0    2
      22  0.4000E+01  0.1000E+01            0    0        0    2
      23  0.5000E+01  0.1000E+01            0    0        0    2
      24  0.6000E+01  0.1000E+01            0    0        0    2
      25  0.7000E+01  0.1000E+01            0    0        0    2
      26  0.8000E+01  0.1000E+01            0    0        0    2
      27  0.9000E+01  0.1000E+01            0    0        0    2
      28  0.1000E+02  0.1000E+01            0    0        0    2
  ______________________________________________________________________


     NUMERICAL INTEGRATION DATA (Gauss Points):

        Full quadrature (NGPF x NGPF) rule, NGPF =   2
        Reduced quadrature (NGPR x NGPR),   NGPR =   2


        *** The NEWTON iteration scheme is used ***

     Iteration No.  1     Error (root-mean-square value)=  0.1000E+01

     Iteration No.  2     Error (root-mean-square value)=  0.3268E-01

     Iteration No.  3     Error (root-mean-square value)=  0.2508E-03

     S O L U T I O N :


     LOAD, FS................................= -0.1000E+01
  __________________________________________________

     Node    x-coord.      y-coord.     U      V  
  __________________________________________________

       1   0.00000E+00   0.00000E+00   0.00000E+00   0.00000E+00
       2   0.98947E+00  -0.11948E-01  -0.10532E-01  -0.11948E-01
       3   0.19801E+01  -0.43165E-01  -0.19949E-01  -0.43165E-01
       4   0.29717E+01  -0.89973E-01  -0.28252E-01  -0.89973E-01
       5   0.39647E+01  -0.14922E+00  -0.35299E-01  -0.14922E+00
       6   0.49587E+01  -0.21748E+00  -0.41345E-01  -0.21748E+00
       7   0.59534E+01  -0.29193E+00  -0.46645E-01  -0.29193E+00
       8   0.69487E+01  -0.37034E+00  -0.51274E-01  -0.37034E+00
       9   0.79447E+01  -0.45105E+00  -0.55327E-01  -0.45105E+00
      10   0.89410E+01  -0.53273E+00  -0.58957E-01  -0.53273E+00
      11   0.99376E+01  -0.61465E+00  -0.62364E-01  -0.61465E+00
      12   0.00000E+00   0.50000E+00   0.00000E+00   0.00000E+00
      13   0.19996E+01   0.45730E+00  -0.43556E-03  -0.42700E-01
      14   0.39967E+01   0.35001E+00  -0.32665E-02  -0.14999E+00
      15   0.59916E+01   0.20677E+00  -0.83742E-02  -0.29323E+00
      16   0.79853E+01   0.47326E-01  -0.14718E-01  -0.45267E+00
      17   0.99786E+01  -0.11634E+00  -0.21419E-01  -0.61634E+00
      18   0.00000E+00   0.10000E+01   0.00000E+00   0.00000E+00
      19   0.10105E+01   0.98778E+00   0.10497E-01  -0.12220E-01
      20   0.20190E+01   0.95607E+00   0.19026E-01  -0.43931E-01
      21   0.30252E+01   0.90858E+00   0.25182E-01  -0.91420E-01
      22   0.40287E+01   0.84871E+00   0.28715E-01  -0.15129E+00
      23   0.50301E+01   0.77997E+00   0.30118E-01  -0.22003E+00
      24   0.60299E+01   0.70513E+00   0.29876E-01  -0.29487E+00
      25   0.70284E+01   0.62648E+00   0.28353E-01  -0.37352E+00
      26   0.80259E+01   0.54564E+00   0.25887E-01  -0.45436E+00
      27   0.90228E+01   0.46392E+00   0.22842E-01  -0.53608E+00
      28   0.10020E+02   0.38198E+00   0.19531E-01  -0.61802E+00
  __________________________________________________

  _____________________________________________________________________________

            x-coord.     y-coord.     SigmaXX     SigmaYY     SigmaXY
                                        SXX         SYY          SXY
  _____________________________________________________________________________

    1     0.42002E+00  0.20873E+00 -0.79318E+05 -0.19267E+05 -0.41411E+04
                                   -0.78246E+05 -0.19049E+05 -0.46739E+04
    1     0.42537E+00  0.78603E+00  0.79293E+05  0.18401E+05 -0.54461E+04
                                    0.80417E+05  0.18619E+05 -0.49052E+04
    1     0.15680E+01  0.18404E+00 -0.61300E+05  0.77563E+02 -0.23531E+04
                                   -0.60383E+05  0.13313E+03 -0.42948E+04
    1     0.15863E+01  0.76108E+00  0.61221E+05 -0.95748E+02 -0.60803E+04
                                    0.62280E+05 -0.14056E+03 -0.41229E+04
    2     0.24087E+01  0.15015E+00 -0.49590E+05  0.52274E+04 -0.13599E+04
                                   -0.48852E+05  0.52056E+04 -0.38511E+04
    2     0.24350E+01  0.72689E+00  0.49411E+05 -0.50050E+04 -0.62228E+04
                                    0.50386E+05 -0.52329E+04 -0.37165E+04
    2     0.35576E+01  0.88540E-01 -0.35658E+05  0.30799E+03 -0.10345E+04
                                   -0.35163E+05  0.14578E+03 -0.31810E+04
    2     0.35922E+01  0.66484E+00  0.35339E+05  0.28752E+03 -0.53680E+04
                                    0.36106E+05 -0.13403E+03 -0.32305E+04
    3     0.43990E+01  0.33693E-01 -0.26913E+05 -0.10522E+04 -0.10206E+04
                                   -0.26525E+05 -0.12600E+04 -0.27507E+04
    3     0.44379E+01  0.60972E+00  0.26569E+05  0.16207E+04 -0.45333E+04
                                    0.27204E+05  0.11740E+04 -0.28148E+04
    3     0.55486E+01 -0.48844E-01 -0.16947E+05  0.40360E+03 -0.91315E+03
                                   -0.16658E+05  0.19208E+03 -0.21948E+04
    3     0.55918E+01  0.52689E+00  0.16634E+05  0.30465E+03 -0.34701E+04
                                    0.17118E+05 -0.99064E+02 -0.22156E+04
    4     0.63905E+01 -0.11402E+00 -0.11119E+05  0.68645E+03 -0.91701E+03
                                   -0.10879E+05  0.48183E+03 -0.18241E+04
    4     0.64355E+01  0.46157E+00  0.10848E+05 -0.20132E+03 -0.26340E+04
                                    0.11217E+05 -0.53338E+03 -0.17423E+04
    4     0.75407E+01 -0.20599E+00 -0.51279E+04  0.30135E+03 -0.77568E+03
                                   -0.49621E+04  0.14327E+03 -0.12024E+04
    4     0.75873E+01  0.36948E+00  0.49351E+04  0.97001E+02 -0.16228E+04
                                    0.51708E+04 -0.13036E+03 -0.12124E+04
    5     0.83830E+01 -0.27490E+00 -0.21999E+04  0.16408E+03 -0.62118E+03
                                   -0.20820E+04  0.47870E+02 -0.80498E+03
    5     0.84301E+01  0.30052E+00  0.20724E+04  0.94414E+02 -0.94036E+03
                                    0.22134E+04 -0.44777E+02 -0.76716E+03
    5     0.95337E+01 -0.36938E+00 -0.17084E+03  0.19840E+03 -0.19292E+03
                                   -0.13683E+03  0.16444E+03 -0.22048E+03
    5     0.95810E+01  0.20603E+00  0.13641E+03 -0.14045E+03 -0.22641E+03
                                    0.17156E+03 -0.17554E+03 -0.20076E+03
  _____________________________________________________________________________


     Iteration No.  1     Error (root-mean-square value)=  0.4990E+00

     Iteration No.  2     Error (root-mean-square value)=  0.1589E-01

     Iteration No.  3     Error (root-mean-square value)=  0.2014E-02

     Iteration No.  4     Error (root-mean-square value)=  0.4600E-04

     S O L U T I O N :


     LOAD, FS................................= -0.2000E+01
  __________________________________________________

     Node    x-coord.      y-coord.     U      V  
  __________________________________________________

       1   0.00000E+00   0.00000E+00   0.00000E+00   0.00000E+00
       2   0.97900E+00  -0.23540E-01  -0.21003E-01  -0.23540E-01
       3   0.19594E+01  -0.85196E-01  -0.40594E-01  -0.85196E-01
       4   0.29408E+01  -0.17759E+00  -0.59163E-01  -0.17759E+00
       5   0.39234E+01  -0.29464E+00  -0.76556E-01  -0.29464E+00
       6   0.49069E+01  -0.42960E+00  -0.93066E-01  -0.42960E+00
       7   0.58910E+01  -0.57684E+00  -0.10897E+00  -0.57684E+00
       8   0.68758E+01  -0.73202E+00  -0.12416E+00  -0.73202E+00
       9   0.78614E+01  -0.89179E+00  -0.13857E+00  -0.89179E+00
      10   0.88477E+01  -0.10536E+01  -0.15231E+00  -0.10536E+01
      11   0.98344E+01  -0.12158E+01  -0.16565E+00  -0.12158E+01
      12   0.00000E+00   0.50000E+00   0.00000E+00   0.00000E+00
      13   0.19983E+01   0.41497E+00  -0.17272E-02  -0.85029E-01
      14   0.39871E+01   0.20179E+00  -0.12927E-01  -0.29821E+00
      15   0.59669E+01  -0.82323E-01  -0.33096E-01  -0.58232E+00
      16   0.79419E+01  -0.39826E+00  -0.58118E-01  -0.89826E+00
      17   0.99155E+01  -0.72246E+00  -0.84545E-01  -0.12225E+01
      18   0.00000E+00   0.10000E+01   0.00000E+00   0.00000E+00
      19   0.10209E+01   0.97538E+00   0.20863E-01  -0.24619E-01
      20   0.20369E+01   0.91177E+00   0.36936E-01  -0.88228E-01
      21   0.30470E+01   0.81668E+00   0.47001E-01  -0.18332E+00
      22   0.40505E+01   0.69717E+00   0.50500E-01  -0.30283E+00
      23   0.50487E+01   0.56030E+00   0.48669E-01  -0.43970E+00
      24   0.60427E+01   0.41154E+00   0.42701E-01  -0.58846E+00
      25   0.70336E+01   0.25545E+00   0.33618E-01  -0.74455E+00
      26   0.80223E+01   0.95154E-01   0.22315E-01  -0.90485E+00
      27   0.90097E+01  -0.66766E-01   0.97312E-02  -0.10668E+01
      28   0.99966E+01  -0.22910E+00  -0.34238E-02  -0.12291E+01
  __________________________________________________

  _____________________________________________________________________________

            x-coord.     y-coord.     SigmaXX     SigmaYY     SigmaXY
                                        SXX         SYY          SXY
  _____________________________________________________________________________

    1     0.41751E+00  0.20619E+00 -0.15788E+06 -0.39265E+05 -0.70306E+04
                                   -0.15373E+06 -0.38401E+05 -0.91262E+04
    1     0.42817E+00  0.78334E+00  0.15779E+06  0.35837E+05 -0.12202E+05
                                    0.16235E+06  0.36701E+05 -0.10042E+05
    1     0.15583E+01  0.15728E+00 -0.12164E+06 -0.19237E+03 -0.10988E+04
                                   -0.11829E+06  0.21534E+03 -0.87425E+04
    1     0.15948E+01  0.73342E+00  0.12132E+06  0.14115E+03 -0.15830E+05
                                    0.12580E+06 -0.24195E+03 -0.80642E+04
    2     0.23933E+01  0.90156E-01 -0.98048E+05  0.99886E+04  0.19768E+04
                                   -0.95585E+05  0.10292E+05 -0.78058E+04
    2     0.24456E+01  0.66508E+00  0.97322E+05 -0.90862E+04 -0.17173E+05
                                    0.10165E+06 -0.10402E+05 -0.72724E+04
    2     0.35333E+01 -0.31842E-01 -0.70306E+05  0.42525E+03  0.21477E+04
                                   -0.68880E+05  0.28049E+03 -0.62807E+04
    2     0.36021E+01  0.54137E+00  0.69037E+05  0.19403E+04 -0.14833E+05
                                    0.72602E+05 -0.23312E+03 -0.64767E+04
    3     0.43674E+01 -0.14045E+00 -0.52998E+05 -0.22250E+04  0.13763E+04
                                   -0.51942E+05 -0.25886E+04 -0.54046E+04
    3     0.44447E+01  0.43168E+00  0.51637E+05  0.44762E+04 -0.12346E+05
                                    0.54626E+05  0.22478E+04 -0.56558E+04
    3     0.55063E+01 -0.30387E+00 -0.33319E+05  0.93128E+03  0.71239E+03
                                   -0.32563E+05  0.47095E+03 -0.43329E+04
    3     0.55918E+01  0.26711E+00  0.32099E+05  0.18535E+04 -0.92481E+04
                                    0.34378E+05 -0.10362E+03 -0.44151E+04
    4     0.63399E+01 -0.43291E+00 -0.21915E+05  0.14613E+04 -0.13107E+03
                                   -0.21220E+05  0.90016E+03 -0.36955E+04
    4     0.64291E+01  0.13748E+00  0.20856E+05  0.44854E+03 -0.68161E+04
                                    0.22556E+05 -0.11041E+04 -0.33721E+04
    4     0.74786E+01 -0.61502E+00 -0.10137E+05  0.78298E+03 -0.68291E+03
                                   -0.96207E+04  0.29612E+03 -0.23719E+04
    4     0.75709E+01 -0.45111E-01  0.93881E+04  0.77989E+03 -0.39733E+04
                                    0.10447E+05 -0.24530E+03 -0.24110E+04
    5     0.83124E+01 -0.75152E+00 -0.44107E+04  0.50977E+03 -0.89396E+03
                                   -0.39927E+04  0.98208E+02 -0.16315E+04
    5     0.84056E+01 -0.18175E+00  0.39157E+04  0.50422E+03 -0.21369E+04
                                    0.45131E+04 -0.86021E+02 -0.14817E+04
    5     0.94516E+01 -0.93865E+00 -0.36818E+03  0.44591E+03 -0.34386E+03
                                   -0.23650E+03  0.31445E+03 -0.45612E+03
    5     0.95453E+01 -0.36895E+00  0.23350E+03 -0.21828E+03 -0.47535E+03
                                    0.37398E+03 -0.35854E+03 -0.37794E+03
  _____________________________________________________________________________


     Iteration No.  1     Error (root-mean-square value)=  0.3299E+00

     Iteration No.  2     Error (root-mean-square value)=  0.1013E-01

     Iteration No.  3     Error (root-mean-square value)=  0.2248E-02

     Iteration No.  4     Error (root-mean-square value)=  0.5100E-04

     S O L U T I O N :


     LOAD, FS................................= -0.3000E+01
  __________________________________________________

     Node    x-coord.      y-coord.     U      V  
  __________________________________________________

       1   0.00000E+00   0.00000E+00   0.00000E+00   0.00000E+00
       2   0.96868E+00  -0.34709E-01  -0.31325E-01  -0.34709E-01
       3   0.19383E+01  -0.12578E+00  -0.61698E-01  -0.12578E+00
       4   0.29078E+01  -0.26209E+00  -0.92240E-01  -0.26209E+00
       5   0.38771E+01  -0.43479E+00  -0.12293E+00  -0.43479E+00
       6   0.48461E+01  -0.63395E+00  -0.15390E+00  -0.63395E+00
       7   0.58148E+01  -0.85120E+00  -0.18522E+00  -0.85120E+00
       8   0.67836E+01  -0.10802E+01  -0.21637E+00  -0.10802E+01
       9   0.77531E+01  -0.13161E+01  -0.24691E+00  -0.13161E+01
      10   0.87233E+01  -0.15549E+01  -0.27668E+00  -0.15549E+01
      11   0.96941E+01  -0.17946E+01  -0.30594E+00  -0.17946E+01
      12   0.00000E+00   0.50000E+00   0.00000E+00   0.00000E+00
      13   0.19962E+01   0.37335E+00  -0.38333E-02  -0.12665E+00
      14   0.39714E+01   0.56943E-01  -0.28588E-01  -0.44306E+00
      15   0.59270E+01  -0.36351E+00  -0.73025E-01  -0.86351E+00
      16   0.78719E+01  -0.83032E+00  -0.12807E+00  -0.13303E+01
      17   0.98138E+01  -0.13091E+01  -0.18617E+00  -0.18091E+01
      18   0.00000E+00   0.10000E+01   0.00000E+00   0.00000E+00
      19   0.10310E+01   0.96290E+00   0.31014E-01  -0.37102E-01
      20   0.20536E+01   0.86750E+00   0.53580E-01  -0.13250E+00
      21   0.30653E+01   0.72526E+00   0.65306E-01  -0.27474E+00
      22   0.40653E+01   0.54715E+00   0.65312E-01  -0.45285E+00
      23   0.50558E+01   0.34379E+00   0.55843E-01  -0.65621E+00
      24   0.60390E+01   0.12323E+00   0.39000E-01  -0.87677E+00
      25   0.70167E+01  -0.10779E+00   0.16746E-01  -0.11078E+01
      26   0.79907E+01  -0.34477E+00  -0.92749E-02  -0.13448E+01
      27   0.89626E+01  -0.58397E+00  -0.37368E-01  -0.15840E+01
      28   0.99336E+01  -0.82374E+00  -0.66365E-01  -0.18237E+01
  __________________________________________________

  _____________________________________________________________________________

            x-coord.     y-coord.     SigmaXX     SigmaYY     SigmaXY
                                        SXX         SYY          SXY
  _____________________________________________________________________________

    1     0.41514E+00  0.20372E+00 -0.23498E+06 -0.59842E+05 -0.87653E+04
                                   -0.22599E+06 -0.57928E+05 -0.13376E+05
    1     0.43101E+00  0.78062E+00  0.23476E+06  0.52245E+05 -0.20224E+05
                                    0.24514E+06  0.54157E+05 -0.15402E+05
    1     0.15484E+01  0.13124E+00 -0.18010E+06 -0.10848E+04  0.34844E+04
                                   -0.17324E+06  0.21192E+03 -0.13317E+05
    1     0.16027E+01  0.70590E+00  0.17934E+06  0.10491E+04 -0.29023E+05
                                    0.18987E+06 -0.25774E+03 -0.11823E+05
    2     0.23766E+01  0.31828E-01 -0.14420E+06  0.13689E+05  0.95724E+04
                                   -0.13973E+06  0.15176E+05 -0.11831E+05
    2     0.24543E+01  0.60382E+00  0.14254E+06 -0.11611E+05 -0.32430E+05
                                    0.15312E+06 -0.15422E+05 -0.10648E+05
    2     0.35049E+01 -0.14863E+00 -0.10276E+06 -0.33748E+03  0.91071E+04
                                   -0.10073E+06  0.38692E+03 -0.92711E+04
    2     0.36069E+01  0.41958E+00  0.99950E+05  0.56042E+04 -0.27840E+05
                                    0.10894E+06 -0.27442E+03 -0.97055E+04
    3     0.43287E+01 -0.30918E+00 -0.77220E+05 -0.41192E+04  0.67951E+04
                                   -0.75892E+05 -0.39657E+04 -0.79361E+04
    3     0.44431E+01  0.25666E+00  0.74224E+05  0.91051E+04 -0.22914E+05
                                    0.81817E+05  0.32132E+04 -0.84838E+04
    3     0.54518E+01 -0.55062E+00 -0.48323E+05  0.10513E+04  0.46056E+04
                                   -0.47465E+05  0.82738E+03 -0.63826E+04
    3     0.55782E+01  0.12711E-01  0.45698E+05  0.50448E+04 -0.16864E+05
                                    0.51476E+05 -0.16071E+02 -0.65638E+04
    4     0.62725E+01 -0.74118E+00 -0.31861E+05  0.19669E+04  0.21719E+04
                                   -0.30856E+05  0.12470E+04 -0.55797E+04
    4     0.64045E+01 -0.17914E+00  0.29561E+05  0.22218E+04 -0.12227E+05
                                    0.33811E+05 -0.16968E+04 -0.48650E+04
    4     0.73932E+01 -0.10101E+01 -0.14743E+05  0.12370E+04  0.20236E+03
                                   -0.13899E+05  0.45497E+03 -0.34886E+04
    4     0.75296E+01 -0.44911E+00  0.13137E+05  0.21721E+04 -0.68562E+04
                                    0.15728E+05 -0.34312E+03 -0.35735E+04
    5     0.82135E+01 -0.12117E+01 -0.65195E+04  0.95475E+03 -0.82610E+03
                                   -0.57016E+04  0.15045E+03 -0.24633E+04
    5     0.83512E+01 -0.65097E+00  0.54581E+04  0.12567E+04 -0.35039E+04
                                    0.68541E+04 -0.12326E+03 -0.21320E+04
    5     0.93343E+01 -0.14880E+01 -0.58229E+03  0.73120E+03 -0.44794E+03
                                   -0.29813E+03  0.44756E+03 -0.70212E+03
    5     0.94727E+01 -0.92748E+00  0.29030E+03 -0.23334E+03 -0.73519E+03
                                    0.60268E+03 -0.54522E+03 -0.52881E+03
  _____________________________________________________________________________


     Iteration No.  1     Error (root-mean-square value)=  0.2436E+00

     Iteration No.  2     Error (root-mean-square value)=  0.7138E-02

     Iteration No.  3     Error (root-mean-square value)=  0.2051E-02

     Iteration No.  4     Error (root-mean-square value)=  0.4775E-04

     S O L U T I O N :


     LOAD, FS................................= -0.4000E+01
  __________________________________________________

     Node    x-coord.      y-coord.     U      V  
  __________________________________________________

       1   0.00000E+00   0.00000E+00   0.00000E+00   0.00000E+00
       2   0.95858E+00  -0.45406E-01  -0.41421E-01  -0.45406E-01
       3   0.19170E+01  -0.16468E+00  -0.83029E-01  -0.16468E+00
       4   0.28730E+01  -0.34288E+00  -0.12696E+00  -0.34288E+00
       5   0.38266E+01  -0.56850E+00  -0.17345E+00  -0.56850E+00
       6   0.47777E+01  -0.82863E+00  -0.22229E+00  -0.82863E+00
       7   0.57268E+01  -0.11122E+01  -0.27318E+00  -0.11122E+01
       8   0.66751E+01  -0.14111E+01  -0.32494E+00  -0.14111E+01
       9   0.76234E+01  -0.17190E+01  -0.37657E+00  -0.17190E+01
      10   0.85725E+01  -0.20308E+01  -0.42752E+00  -0.20308E+01
      11   0.95221E+01  -0.23437E+01  -0.47787E+00  -0.23437E+01
      12   0.00000E+00   0.50000E+00   0.00000E+00   0.00000E+00
      13   0.19933E+01   0.33274E+00  -0.66899E-02  -0.16726E+00
      14   0.39503E+01  -0.83168E-01  -0.49651E-01  -0.58317E+00
      15   0.58736E+01  -0.63365E+00  -0.12645E+00  -0.11337E+01
      16   0.77786E+01  -0.12436E+01  -0.22136E+00  -0.17436E+01
      17   0.96785E+01  -0.18688E+01  -0.32150E+00  -0.23688E+01
      18   0.00000E+00   0.10000E+01   0.00000E+00   0.00000E+00
      19   0.10409E+01   0.95042E+00   0.40875E-01  -0.49577E-01
      20   0.20689E+01   0.82363E+00   0.68864E-01  -0.17637E+00
      21   0.30801E+01   0.63518E+00   0.80084E-01  -0.36482E+00
      22   0.40734E+01   0.40023E+00   0.73391E-01  -0.59977E+00
      23   0.50523E+01   0.13290E+00   0.52293E-01  -0.86710E+00
      24   0.60200E+01  -0.15634E+00   0.19987E-01  -0.11563E+01
      25   0.69796E+01  -0.45868E+00  -0.20369E-01  -0.14587E+01
      26   0.79338E+01  -0.76844E+00  -0.66241E-01  -0.17684E+01
      27   0.88850E+01  -0.10809E+01  -0.11503E+00  -0.20809E+01
      28   0.98349E+01  -0.13940E+01  -0.16506E+00  -0.23940E+01
  __________________________________________________

  _____________________________________________________________________________

            x-coord.     y-coord.     SigmaXX     SigmaYY     SigmaXY
                                        SXX         SYY          SXY
  _____________________________________________________________________________

    1     0.41290E+00  0.20132E+00 -0.31003E+06 -0.80832E+05 -0.94740E+04
                                   -0.29469E+06 -0.77506E+05 -0.17446E+05
    1     0.43388E+00  0.77789E+00  0.30961E+06  0.67606E+05 -0.29429E+05
                                    0.32812E+06  0.70930E+05 -0.20966E+05
    1     0.15383E+01  0.10607E+00 -0.23589E+06 -0.28015E+04  0.11000E+05
                                   -0.22493E+06  0.98114E+02 -0.17988E+05
    1     0.16100E+01  0.67874E+00  0.23447E+06  0.29215E+04 -0.45293E+05
                                    0.25385E+06 -0.14703E+03 -0.15407E+05
    2     0.23590E+01 -0.24438E-01 -0.18712E+06  0.15884E+05  0.20789E+05
                                   -0.18094E+06  0.19793E+05 -0.15895E+05
    2     0.24613E+01  0.54359E+00  0.18411E+06 -0.12083E+05 -0.51357E+05
                                    0.20417E+06 -0.20227E+05 -0.13831E+05
    2     0.34731E+01 -0.26086E+00 -0.13209E+06 -0.24915E+04  0.19167E+05
                                   -0.13040E+06  0.45343E+03 -0.12130E+05
    2     0.36070E+01  0.30065E+00  0.12721E+06  0.11719E+05 -0.43612E+05
                                    0.14463E+06 -0.23982E+03 -0.12887E+05
    3     0.42839E+01 -0.47096E+00 -0.98786E+05 -0.71671E+04  0.14622E+05
                                   -0.98105E+05 -0.53712E+04 -0.10327E+05
    3     0.44338E+01  0.86476E-01  0.93616E+05  0.15843E+05 -0.35521E+05
                                    0.10837E+06  0.40672E+04 -0.11261E+05
    3     0.53866E+01 -0.78657E+00 -0.61352E+05  0.36257E+03  0.10306E+05
                                   -0.61180E+05  0.12495E+04 -0.83185E+04
    3     0.55520E+01 -0.23342E+00  0.56961E+05  0.10083E+05 -0.25713E+05
                                    0.68136E+05  0.15715E+03 -0.86317E+04
    4     0.61908E+01 -0.10355E+01 -0.40554E+05  0.19385E+04  0.56794E+04
                                   -0.39661E+05  0.15185E+04 -0.74443E+04
    4     0.63632E+01 -0.48453E+00  0.36659E+05  0.52575E+04 -0.18453E+05
                                    0.44793E+05 -0.22972E+04 -0.62042E+04
    4     0.72878E+01 -0.13866E+01 -0.18726E+05  0.14991E+04  0.17288E+04
                                   -0.17741E+05  0.61617E+03 -0.45367E+04
    4     0.74660E+01 -0.83747E+00  0.16051E+05  0.43154E+04 -0.10037E+05
                                    0.20923E+05 -0.42319E+03 -0.46808E+04
    5     0.80903E+01 -0.16498E+01 -0.84313E+04  0.14247E+04 -0.45725E+03
                                   -0.71879E+04  0.20389E+03 -0.32856E+04
    5     0.82701E+01 -0.11012E+01  0.66634E+04  0.23462E+04 -0.49475E+04
                                    0.91940E+04 -0.15613E+03 -0.27097E+04
    5     0.91868E+01 -0.20106E+01 -0.80305E+03  0.10420E+04 -0.50416E+03
                                   -0.32226E+03  0.56208E+03 -0.95381E+03
    5     0.93674E+01 -0.14622E+01  0.30920E+03 -0.18972E+03 -0.99513E+03
                                    0.85246E+03 -0.73214E+03 -0.65177E+03
  _____________________________________________________________________________


     Iteration No.  1     Error (root-mean-square value)=  0.1905E+00

     Iteration No.  2     Error (root-mean-square value)=  0.5283E-02

     Iteration No.  3     Error (root-mean-square value)=  0.1692E-02

     Iteration No.  4     Error (root-mean-square value)=  0.4236E-04

     S O L U T I O N :


     LOAD, FS................................= -0.5000E+01
  __________________________________________________

     Node    x-coord.      y-coord.     U      V  
  __________________________________________________

       1   0.00000E+00   0.00000E+00   0.00000E+00   0.00000E+00
       2   0.94877E+00  -0.55603E-01  -0.51233E-01  -0.55603E-01
       3   0.18956E+01  -0.20174E+00  -0.10438E+00  -0.20174E+00
       4   0.28372E+01  -0.41956E+00  -0.16279E+00  -0.41956E+00
       5   0.37729E+01  -0.69501E+00  -0.22711E+00  -0.69501E+00
       6   0.47034E+01  -0.10124E+01  -0.29661E+00  -0.10124E+01
       7   0.56296E+01  -0.13579E+01  -0.37039E+00  -0.13579E+01
       8   0.65534E+01  -0.17222E+01  -0.44655E+00  -0.17222E+01
       9   0.74767E+01  -0.20971E+01  -0.52330E+00  -0.20971E+01
      10   0.84004E+01  -0.24770E+01  -0.59961E+00  -0.24770E+01
      11   0.93247E+01  -0.28582E+01  -0.67528E+00  -0.28582E+01
      12   0.00000E+00   0.50000E+00   0.00000E+00   0.00000E+00
      13   0.19898E+01   0.29336E+00  -0.10219E-01  -0.20664E+00
      14   0.39246E+01  -0.21752E+00  -0.75391E-01  -0.71752E+00
      15   0.58087E+01  -0.89045E+00  -0.19129E+00  -0.13904E+01
      16   0.76658E+01  -0.16342E+01  -0.33416E+00  -0.21342E+01
      17   0.95152E+01  -0.23960E+01  -0.48479E+00  -0.28960E+01
      18   0.00000E+00   0.10000E+01   0.00000E+00   0.00000E+00
      19   0.10504E+01   0.93803E+00   0.50392E-01  -0.61967E-01
      20   0.20827E+01   0.78045E+00   0.82748E-01  -0.21955E+00
      21   0.30914E+01   0.54717E+00   0.91449E-01  -0.45283E+00
      22   0.40752E+01   0.25770E+00   0.75198E-01  -0.74230E+00
      23   0.50390E+01  -0.70410E-01   0.39025E-01  -0.10704E+01
      24   0.59874E+01  -0.42444E+00  -0.12626E-01  -0.14244E+01
      25   0.69248E+01  -0.79370E+00  -0.75189E-01  -0.17937E+01
      26   0.78549E+01  -0.11715E+01  -0.14514E+00  -0.21715E+01
      27   0.87811E+01  -0.15523E+01  -0.21885E+00  -0.25523E+01
      28   0.97058E+01  -0.19338E+01  -0.29418E+00  -0.29338E+01
  __________________________________________________

  _____________________________________________________________________________

            x-coord.     y-coord.     SigmaXX     SigmaYY     SigmaXY
                                        SXX         SYY          SXY
  _____________________________________________________________________________

    1     0.41081E+00  0.19900E+00 -0.38255E+06 -0.10208E+06 -0.93036E+04
                                   -0.35965E+06 -0.97022E+05 -0.21367E+05
    1     0.43674E+00  0.77515E+00  0.38185E+06  0.81932E+05 -0.39702E+05
                                    0.41075E+06  0.86985E+05 -0.26711E+05
    1     0.15283E+01  0.81889E-01 -0.28846E+06 -0.54637E+04  0.20981E+05
                                   -0.27316E+06 -0.13959E+03 -0.22722E+05
    1     0.16166E+01  0.65211E+00  0.28610E+06  0.59860E+04 -0.64181E+05
                                    0.31717E+06  0.12304E+03 -0.18830E+05
    2     0.23407E+01 -0.78361E-01 -0.22614E+06  0.16303E+05  0.34878E+05
                                   -0.21904E+06  0.24096E+05 -0.19966E+05
    2     0.24665E+01  0.48483E+00  0.22134E+06 -0.10179E+05 -0.73183E+05
                                    0.25425E+06 -0.24769E+05 -0.16815E+05
    2     0.34386E+01 -0.36785E+00 -0.15769E+06 -0.63320E+04  0.31524E+05
                                   -0.15769E+06  0.47529E+03 -0.14841E+05
    2     0.36028E+01  0.18552E+00  0.15030E+06  0.20487E+05 -0.61258E+05
                                    0.17923E+06 -0.11675E+03 -0.15995E+05
    3     0.42342E+01 -0.62468E+00 -0.11721E+06 -0.11597E+05  0.24137E+05
                                   -0.11841E+06 -0.67868E+04 -0.12569E+05
    3     0.44176E+01 -0.77420E-01  0.10942E+06  0.24797E+05 -0.49364E+05
                                    0.13395E+06  0.48119E+04 -0.13953E+05
    3     0.53128E+01 -0.10099E+01 -0.72041E+05 -0.13653E+04  0.17255E+05
                                   -0.73589E+05  0.17246E+04 -0.10122E+05
    3     0.55147E+01 -0.46906E+00  0.65677E+05  0.16971E+05 -0.35154E+05
                                    0.84135E+05  0.40689E+03 -0.10595E+05
    4     0.60973E+01 -0.13134E+01 -0.47758E+05  0.12297E+04  0.10015E+05
                                   -0.47558E+05  0.17151E+04 -0.92619E+04
    4     0.63076E+01 -0.77582E+00  0.42023E+05  0.95555E+04 -0.25063E+05
                                    0.55351E+05 -0.28926E+04 -0.73809E+04
    4     0.71661E+01 -0.17413E+01 -0.21951E+05  0.14677E+04  0.37038E+04
                                   -0.21114E+05  0.77638E+03 -0.55054E+04
    4     0.73833E+01 -0.12064E+01  0.18093E+05  0.71722E+04 -0.13283E+05
                                    0.25955E+05 -0.48574E+03 -0.57181E+04
    5     0.79472E+01 -0.20620E+01 -0.10080E+05  0.18632E+04  0.15153E+03
                                   -0.84419E+04  0.25786E+03 -0.40857E+04
    5     0.81664E+01 -0.15278E+01  0.75301E+04  0.37388E+04 -0.63801E+04
                                    0.11496E+05 -0.18427E+03 -0.32104E+04
    5     0.90145E+01 -0.25016E+01 -0.10215E+04  0.13667E+04 -0.51492E+03
                                   -0.31067E+03  0.65731E+03 -0.12070E+04
    5     0.92346E+01 -0.19678E+01  0.29517E+03 -0.94623E+02 -0.12466E+04
                                    0.11182E+04 -0.91634E+03 -0.74642E+03
  _____________________________________________________________________________


     Iteration No.  1     Error (root-mean-square value)=  0.1544E+00

     Iteration No.  2     Error (root-mean-square value)=  0.4022E-02

     Iteration No.  3     Error (root-mean-square value)=  0.1286E-02

     Iteration No.  4     Error (root-mean-square value)=  0.3727E-04

     S O L U T I O N :


     LOAD, FS................................= -0.6000E+01
  __________________________________________________

     Node    x-coord.      y-coord.     U      V  
  __________________________________________________

       1   0.00000E+00   0.00000E+00   0.00000E+00   0.00000E+00
       2   0.93928E+00  -0.65291E-01  -0.60718E-01  -0.65291E-01
       3   0.18744E+01  -0.23689E+00  -0.12557E+00  -0.23689E+00
       4   0.28007E+01  -0.49193E+00  -0.19928E+00  -0.49193E+00
       5   0.37171E+01  -0.81390E+00  -0.28294E+00  -0.81390E+00
       6   0.46248E+01  -0.11844E+01  -0.37522E+00  -0.11844E+01
       7   0.55255E+01  -0.15873E+01  -0.47445E+00  -0.15873E+01
       8   0.64221E+01  -0.20118E+01  -0.57788E+00  -0.20118E+01
       9   0.73172E+01  -0.24486E+01  -0.68282E+00  -0.24486E+01
      10   0.82123E+01  -0.28912E+01  -0.78768E+00  -0.28912E+01
      11   0.91081E+01  -0.33353E+01  -0.89189E+00  -0.33353E+01
      12   0.00000E+00   0.50000E+00   0.00000E+00   0.00000E+00
      13   0.19857E+01   0.25536E+00  -0.14335E-01  -0.24464E+00
      14   0.38950E+01  -0.34541E+00  -0.10503E+00  -0.84541E+00
      15   0.57346E+01  -0.11324E+01  -0.26535E+00  -0.16324E+01
      16   0.75376E+01  -0.19997E+01  -0.46240E+00  -0.24997E+01
      17   0.93300E+01  -0.28874E+01  -0.66996E+00  -0.33874E+01
      18   0.00000E+00   0.10000E+01   0.00000E+00   0.00000E+00
      19   0.10595E+01   0.92579E+00   0.59528E-01  -0.74206E-01
      20   0.20952E+01   0.73822E+00   0.95236E-01  -0.26178E+00
      21   0.30996E+01   0.46178E+00   0.99608E-01  -0.53822E+00
      22   0.40714E+01   0.12052E+00   0.71350E-01  -0.87948E+00
      23   0.50173E+01  -0.26471E+00   0.17258E-01  -0.12647E+01
      24   0.59431E+01  -0.67916E+00  -0.56853E-01  -0.16792E+01
      25   0.68552E+01  -0.11105E+01  -0.14484E+00  -0.21105E+01
      26   0.77579E+01  -0.15512E+01  -0.24213E+00  -0.25512E+01
      27   0.86560E+01  -0.19950E+01  -0.34402E+00  -0.29950E+01
      28   0.95521E+01  -0.24395E+01  -0.44788E+00  -0.34395E+01
  __________________________________________________

  _____________________________________________________________________________

            x-coord.     y-coord.     SigmaXX     SigmaYY     SigmaXY
                                        SXX         SYY          SXY
  _____________________________________________________________________________

    1     0.40886E+00  0.19675E+00 -0.45224E+06 -0.12343E+06 -0.84060E+04
                                   -0.42081E+06 -0.11638E+06 -0.25165E+05
    1     0.43958E+00  0.77242E+00  0.45117E+06  0.95266E+05 -0.50915E+05
                                    0.49254E+06  0.10232E+06 -0.32611E+05
    1     0.15183E+01  0.58747E-01 -0.33743E+06 -0.91179E+04  0.32942E+05
                                   -0.31791E+06 -0.50458E+03 -0.27488E+05
    1     0.16226E+01  0.62612E+00  0.33385E+06  0.10396E+05 -0.85189E+05
                                    0.37934E+06  0.57574E+03 -0.22109E+05
    2     0.23219E+01 -0.12977E+00 -0.26091E+06  0.14843E+05  0.51070E+05
                                   -0.25396E+06  0.28060E+05 -0.24020E+05
    2     0.24700E+01  0.42784E+00  0.25386E+06 -0.57500E+04 -0.97095E+05
                                    0.30290E+06 -0.29019E+05 -0.19602E+05
    2     0.34020E+01 -0.46919E+00 -0.17929E+06 -0.11945E+05  0.45361E+05
                                   -0.18252E+06  0.45377E+03 -0.17395E+05
    2     0.35946E+01  0.74857E-01  0.16901E+06  0.31885E+05 -0.79894E+05
                                    0.21242E+06  0.10128E+03 -0.19011E+05
    3     0.41806E+01 -0.76968E+00 -0.13230E+06 -0.17440E+05  0.34614E+05
                                   -0.13672E+06 -0.81971E+04 -0.14659E+05
    3     0.43954E+01 -0.23401E+00  0.12156E+06  0.35870E+05 -0.63672E+05
                                    0.15831E+06  0.54532E+04 -0.16533E+05
    3     0.52323E+01 -0.12196E+01 -0.80257E+05 -0.41941E+04  0.24885E+05
                                   -0.84639E+05  0.22401E+04 -0.11784E+05
    3     0.54682E+01 -0.69267E+00  0.71864E+05  0.25541E+05 -0.44600E+05
                                    0.99307E+05  0.72239E+03 -0.12438E+05
    4     0.59947E+01 -0.15735E+01 -0.53389E+05 -0.19066E+03  0.14802E+05
                                   -0.54514E+05  0.18405E+04 -0.11011E+05
    4     0.62401E+01 -0.10511E+01  0.45679E+05  0.14999E+05 -0.31659E+05
                                    0.65373E+05 -0.34732E+04 -0.83938E+04
    4     0.70318E+01 -0.20723E+01 -0.24371E+05  0.11053E+04  0.59280E+04
                                   -0.24008E+05  0.93282E+03 -0.63888E+04
    4     0.72849E+01 -0.15535E+01  0.19307E+05  0.10643E+05 -0.16391E+05
                                    0.30767E+05 -0.53172E+03 -0.66753E+04
    5     0.77889E+01 -0.24459E+01 -0.11430E+05  0.22354E+04  0.93019E+03
                                   -0.94634E+04  0.31167E+03 -0.48541E+04
    5     0.80443E+01 -0.19281E+01  0.80842E+04  0.53805E+04 -0.77304E+04
                                    0.13732E+05 -0.20741E+03 -0.36333E+04
    5     0.88233E+01 -0.29581E+01 -0.12305E+04  0.16958E+04 -0.48509E+03
                                   -0.26606E+03  0.73332E+03 -0.14583E+04
    5     0.90797E+01 -0.24408E+01  0.25458E+03  0.43121E+02 -0.14836E+04
                                    0.13950E+04 -0.10955E+04 -0.81339E+03
  _____________________________________________________________________________


     Iteration No.  1     Error (root-mean-square value)=  0.1281E+00

     Iteration No.  2     Error (root-mean-square value)=  0.3119E-02

     Iteration No.  3     Error (root-mean-square value)=  0.8946E-03

     S O L U T I O N :


     LOAD, FS................................= -0.7000E+01
  __________________________________________________

     Node    x-coord.      y-coord.     U      V  
  __________________________________________________

       1   0.00000E+00   0.00000E+00   0.00000E+00   0.00000E+00
       2   0.93014E+00  -0.74478E-01  -0.69859E-01  -0.74478E-01
       3   0.18535E+01  -0.27011E+00  -0.14646E+00  -0.27011E+00
       4   0.27640E+01  -0.55998E+00  -0.23602E+00  -0.55998E+00
       5   0.36599E+01  -0.92509E+00  -0.34010E+00  -0.92509E+00
       6   0.45433E+01  -0.13446E+01  -0.45667E+00  -0.13446E+01
       7   0.54169E+01  -0.18002E+01  -0.58313E+00  -0.18002E+01
       8   0.62842E+01  -0.22796E+01  -0.71585E+00  -0.22796E+01
       9   0.71489E+01  -0.27729E+01  -0.85114E+00  -0.27729E+01
      10   0.80132E+01  -0.32727E+01  -0.98680E+00  -0.32727E+01
      11   0.88782E+01  -0.37742E+01  -0.11218E+01  -0.37742E+01
      12   0.00000E+00   0.50000E+00   0.00000E+00   0.00000E+00
      13   0.19810E+01   0.21882E+00  -0.18959E-01  -0.28118E+00
      14   0.38622E+01  -0.46652E+00  -0.13780E+00  -0.96652E+00
      15   0.56535E+01  -0.13588E+01  -0.34650E+00  -0.18588E+01
      16   0.73978E+01  -0.23392E+01  -0.60217E+00  -0.28392E+01
      17   0.91288E+01  -0.33417E+01  -0.87123E+00  -0.38417E+01
      18   0.00000E+00   0.10000E+01   0.00000E+00   0.00000E+00
      19   0.10683E+01   0.91375E+00   0.68258E-01  -0.86246E-01
      20   0.21064E+01   0.69710E+00   0.10637E+00  -0.30290E+00
      21   0.31048E+01   0.37938E+00   0.10483E+00  -0.62062E+00
      22   0.40625E+01  -0.10703E-01   0.62541E-01  -0.10107E+01
      23   0.49883E+01  -0.44916E+00  -0.11706E-01  -0.14492E+01
      24   0.58894E+01  -0.91943E+00  -0.11064E+00  -0.19194E+01
      25   0.67736E+01  -0.14077E+01  -0.22641E+00  -0.24077E+01
      26   0.76466E+01  -0.19059E+01  -0.35340E+00  -0.29059E+01
      27   0.85142E+01  -0.24072E+01  -0.48577E+00  -0.34072E+01
      28   0.93795E+01  -0.29093E+01  -0.62046E+00  -0.39093E+01
  __________________________________________________

  _____________________________________________________________________________

            x-coord.     y-coord.     SigmaXX     SigmaYY     SigmaXY
                                        SXX         SYY          SXY
  _____________________________________________________________________________

    1     0.40704E+00  0.19457E+00 -0.51902E+06 -0.14478E+06 -0.69274E+04
                                   -0.47832E+06 -0.13552E+06 -0.28874E+05
    1     0.44239E+00  0.76970E+00  0.51731E+06  0.10766E+06 -0.62930E+05
                                    0.57309E+06  0.11693E+06 -0.38637E+05
    1     0.15084E+01  0.36668E-01 -0.38263E+06 -0.13741E+05  0.46418E+05
                                   -0.35920E+06 -0.98395E+03 -0.32258E+05
    1     0.16281E+01  0.60087E+00  0.37752E+06  0.16248E+05 -0.10782E+06
                                    0.44005E+06  0.12410E+04 -0.25263E+05
    2     0.23028E+01 -0.17861E+00 -0.29127E+06  0.11560E+05  0.68627E+05
                                   -0.28569E+06  0.31687E+05 -0.28042E+05
    2     0.24721E+01  0.37281E+00  0.28161E+06  0.12131E+04 -0.12233E+06
                                    0.34985E+06 -0.32947E+05 -0.22193E+05
    2     0.33639E+01 -0.56473E+00 -0.19680E+06 -0.19229E+05  0.59918E+05
                                   -0.20485E+06  0.40625E+03 -0.19783E+05
    2     0.35832E+01 -0.30918E-01  0.18347E+06  0.45736E+05 -0.98741E+05
                                    0.24403E+06  0.43242E+03 -0.21922E+05
    3     0.41243E+01 -0.90572E+00 -0.14407E+06 -0.24565E+05  0.45401E+05
                                   -0.15301E+06 -0.95822E+04 -0.16597E+05
    3     0.43681E+01 -0.38271E+00  0.13022E+06  0.48825E+05 -0.77790E+05
                                    0.18132E+06  0.60103E+04 -0.18981E+05
    3     0.51470E+01 -0.14152E+01 -0.86046E+05 -0.80403E+04  0.32688E+05
                                   -0.94314E+05  0.27923E+04 -0.13297E+05
    3     0.54141E+01 -0.90343E+00  0.75736E+05  0.35524E+05 -0.53582E+05
                                    0.11357E+06  0.11018E+04 -0.14152E+05
    4     0.58855E+01 -0.18154E+01 -0.57484E+05 -0.22558E+04  0.19706E+05
                                   -0.60523E+05  0.19074E+04 -0.12676E+05
    4     0.61631E+01 -0.13093E+01  0.47785E+05  0.21402E+05 -0.37928E+05
                                    0.74806E+05 -0.40247E+04 -0.92471E+04
    4     0.68885E+01 -0.23789E+01 -0.26000E+05  0.43400E+03  0.82233E+04
                                   -0.26424E+05  0.10901E+04 -0.71848E+04
    4     0.71744E+01 -0.18774E+01  0.19802E+05  0.14602E+05 -0.19213E+05
                                    0.35333E+05 -0.55545E+03 -0.75472E+04
    5     0.76197E+01 -0.28008E+01 -0.12469E+05  0.25334E+04  0.18109E+04
                                   -0.10254E+05  0.37161E+03 -0.55845E+04
    5     0.79081E+01 -0.23006E+01  0.83774E+04  0.72160E+04 -0.89492E+04
                                    0.15891E+05 -0.21836E+03 -0.39801E+04
    5     0.86185E+01 -0.33792E+01 -0.14185E+04  0.20292E+04 -0.42070E+03
                                   -0.18476E+03  0.79804E+03 -0.17052E+04
    5     0.89081E+01 -0.28797E+01  0.20144E+03  0.22178E+03 -0.17033E+04
                                    0.16865E+04 -0.12610E+04 -0.85415E+03
  _____________________________________________________________________________


     Iteration No.  1     Error (root-mean-square value)=  0.1081E+00

     Iteration No.  2     Error (root-mean-square value)=  0.2431E-02

     Iteration No.  3     Error (root-mean-square value)=  0.5100E-03

     S O L U T I O N :


     LOAD, FS................................= -0.8000E+01
  __________________________________________________

     Node    x-coord.      y-coord.     U      V  
  __________________________________________________

       1   0.00000E+00   0.00000E+00   0.00000E+00   0.00000E+00
       2   0.92137E+00  -0.83176E-01  -0.78631E-01  -0.83176E-01
       3   0.18330E+01  -0.30144E+00  -0.16695E+00  -0.30144E+00
       4   0.27273E+01  -0.62374E+00  -0.27265E+00  -0.62374E+00
       5   0.36022E+01  -0.10287E+01  -0.39784E+00  -0.10287E+01
       6   0.44603E+01  -0.14931E+01  -0.53965E+00  -0.14931E+01
       7   0.53055E+01  -0.19965E+01  -0.69445E+00  -0.19965E+01
       8   0.61423E+01  -0.25259E+01  -0.85769E+00  -0.25259E+01
       9   0.69753E+01  -0.30702E+01  -0.10247E+01  -0.30702E+01
      10   0.78075E+01  -0.36218E+01  -0.11925E+01  -0.36218E+01
      11   0.86403E+01  -0.41751E+01  -0.13597E+01  -0.41751E+01
      12   0.00000E+00   0.50000E+00   0.00000E+00   0.00000E+00
      13   0.19760E+01   0.18381E+00  -0.24001E-01  -0.31619E+00
      14   0.38270E+01  -0.58065E+00  -0.17298E+00  -0.10807E+01
      15   0.55672E+01  -0.15696E+01  -0.43275E+00  -0.20696E+01
      16   0.72501E+01  -0.26525E+01  -0.74986E+00  -0.31525E+01
      17   0.89168E+01  -0.37587E+01  -0.10832E+01  -0.42587E+01
      18   0.00000E+00   0.10000E+01   0.00000E+00   0.00000E+00
      19   0.10766E+01   0.90195E+00   0.76580E-01  -0.98047E-01
      20   0.21162E+01   0.65723E+00   0.11622E+00  -0.34277E+00
      21   0.31074E+01   0.30027E+00   0.10740E+00  -0.69973E+00
      22   0.40495E+01  -0.13554E+00   0.49478E-01  -0.11355E+01
      23   0.49534E+01  -0.62322E+00  -0.46587E-01  -0.16232E+01
      24   0.58280E+01  -0.11446E+01  -0.17199E+00  -0.21446E+01
      25   0.66829E+01  -0.16847E+01  -0.31712E+00  -0.26847E+01
      26   0.75247E+01  -0.22351E+01  -0.47531E+00  -0.32351E+01
      27   0.83604E+01  -0.27884E+01  -0.63961E+00  -0.37884E+01
      28   0.91935E+01  -0.33424E+01  -0.80654E+00  -0.43424E+01
  __________________________________________________

  _____________________________________________________________________________

            x-coord.     y-coord.     SigmaXX     SigmaYY     SigmaXY
                                        SXX         SYY          SXY
  _____________________________________________________________________________

    1     0.40536E+00  0.19246E+00 -0.58267E+06 -0.16600E+06 -0.50014E+04
                                   -0.53217E+06 -0.15436E+06 -0.32509E+05
    1     0.44515E+00  0.76699E+00  0.58027E+06  0.11921E+06 -0.75618E+05
                                    0.65221E+06  0.13086E+06 -0.44761E+05
    1     0.14987E+01  0.15654E-01 -0.42406E+06 -0.19293E+05  0.60983E+05
                                   -0.39722E+06 -0.15842E+04 -0.37005E+05
    1     0.16329E+01  0.57642E+00  0.41700E+06  0.23529E+05 -0.13159E+06
                                    0.49894E+06  0.20918E+04 -0.28314E+05
    2     0.22835E+01 -0.22487E+00 -0.31739E+06  0.65560E+04  0.86935E+05
                                   -0.31445E+06  0.34958E+05 -0.32007E+05
    2     0.24728E+01  0.31990E+00  0.30457E+06  0.10539E+05 -0.14816E+06
                                    0.39475E+06 -0.36596E+05 -0.24602E+05
    2     0.33249E+01 -0.65445E+00 -0.21052E+06 -0.28007E+05  0.74574E+05
                                   -0.22484E+06  0.31867E+03 -0.22011E+05
    2     0.35688E+01 -0.13153E+00  0.19386E+06  0.61665E+05 -0.11711E+06
                                    0.27379E+06  0.84008E+03 -0.24714E+05
    3     0.40662E+01 -0.10328E+01 -0.15281E+06 -0.32766E+05  0.55981E+05
                                   -0.16739E+06 -0.10950E+05 -0.18393E+05
    3     0.43368E+01 -0.52316E+00  0.13564E+06  0.63273E+05 -0.91162E+05
                                    0.20280E+06  0.64715E+04 -0.21280E+05
    3     0.50585E+01 -0.15968E+01 -0.89642E+05 -0.12752E+05  0.40255E+05
                                   -0.10269E+06  0.33539E+04 -0.14665E+05
    3     0.53542E+01 -0.11009E+01  0.77550E+05  0.46545E+05 -0.61736E+05
                                    0.12682E+06  0.15145E+04 -0.15730E+05
    4     0.57722E+01 -0.20389E+01 -0.60201E+05 -0.48605E+04  0.24462E+05
                                   -0.65639E+05  0.19086E+04 -0.14248E+05
    4     0.60789E+01 -0.15500E+01  0.48523E+05  0.28506E+05 -0.43632E+05
                                    0.83571E+05 -0.45588E+04 -0.99487E+04
    4     0.67394E+01 -0.26612E+01 -0.26927E+05 -0.50877E+03  0.10444E+05
                                   -0.28395E+05  0.12307E+04 -0.78953E+04
    4     0.70551E+01 -0.21779E+01  0.19685E+05  0.18879E+05 -0.21647E+05
                                    0.39606E+05 -0.57511E+03 -0.83311E+04
    5     0.74435E+01 -0.31267E+01 -0.13226E+05  0.27427E+04  0.27330E+04
                                   -0.10840E+05  0.42079E+03 -0.62722E+04
    5     0.77618E+01 -0.26450E+01  0.84420E+04  0.91631E+04 -0.10005E+05
                                    0.17938E+05 -0.23339E+03 -0.42548E+04
    5     0.84051E+01 -0.37649E+01 -0.15989E+04  0.23449E+04 -0.32854E+03
                                   -0.86466E+02  0.83566E+03 -0.19454E+04
    5     0.87247E+01 -0.32841E+01  0.12447E+03  0.41522E+03 -0.19041E+04
                                    0.19712E+04 -0.14286E+04 -0.87034E+03
  _____________________________________________________________________________


     Iteration No.  1     Error (root-mean-square value)=  0.9249E-01

     Iteration No.  2     Error (root-mean-square value)=  0.1928E-02

     Iteration No.  3     Error (root-mean-square value)=  0.3050E-03

     S O L U T I O N :


     LOAD, FS................................= -0.9000E+01
  __________________________________________________

     Node    x-coord.      y-coord.     U      V  
  __________________________________________________

       1   0.00000E+00   0.00000E+00   0.00000E+00   0.00000E+00
       2   0.91296E+00  -0.91413E-01  -0.87039E-01  -0.91413E-01
       3   0.18130E+01  -0.33096E+00  -0.18696E+00  -0.33096E+00
       4   0.26911E+01  -0.68342E+00  -0.30893E+00  -0.68342E+00
       5   0.35444E+01  -0.11249E+01  -0.45556E+00  -0.11249E+01
       6   0.43769E+01  -0.16304E+01  -0.62311E+00  -0.16304E+01
       7   0.51932E+01  -0.21772E+01  -0.80679E+00  -0.21772E+01
       8   0.59988E+01  -0.27516E+01  -0.10012E+01  -0.27516E+01
       9   0.67996E+01  -0.33418E+01  -0.12004E+01  -0.33418E+01
      10   0.75989E+01  -0.39399E+01  -0.14011E+01  -0.39399E+01
      11   0.83987E+01  -0.45398E+01  -0.16013E+01  -0.45398E+01
      12   0.00000E+00   0.50000E+00   0.00000E+00   0.00000E+00
      13   0.19706E+01   0.15031E+00  -0.29390E-01  -0.34969E+00
      14   0.37901E+01  -0.68793E+00  -0.20994E+00  -0.11879E+01
      15   0.54776E+01  -0.17649E+01  -0.52240E+00  -0.22649E+01
      16   0.70976E+01  -0.29403E+01  -0.90243E+00  -0.34403E+01
      17   0.86985E+01  -0.41398E+01  -0.13015E+01  -0.46398E+01
      18   0.00000E+00   0.10000E+01   0.00000E+00   0.00000E+00
      19   0.10845E+01   0.89041E+00   0.84497E-01  -0.10959E+00
      20   0.21249E+01   0.61867E+00   0.12486E+00  -0.38133E+00
      21   0.31076E+01   0.22453E+00   0.10764E+00  -0.77547E+00
      22   0.40329E+01  -0.25389E+00   0.32852E-01  -0.12539E+01
      23   0.49138E+01  -0.78688E+00  -0.86184E-01  -0.17869E+01
      24   0.57609E+01  -0.13549E+01  -0.23911E+00  -0.23549E+01
      25   0.65855E+01  -0.19419E+01  -0.41450E+00  -0.29419E+01
      26   0.73953E+01  -0.25392E+01  -0.60469E+00  -0.35392E+01
      27   0.81984E+01  -0.31394E+01  -0.80164E+00  -0.41394E+01
      28   0.89985E+01  -0.37401E+01  -0.10015E+01  -0.47401E+01
  __________________________________________________

  _____________________________________________________________________________

            x-coord.     y-coord.     SigmaXX     SigmaYY     SigmaXY
                                        SXX         SYY          SXY
  _____________________________________________________________________________

    1     0.40379E+00  0.19041E+00 -0.64326E+06 -0.18700E+06 -0.27459E+04
                                   -0.58260E+06 -0.17288E+06 -0.36096E+05
    1     0.44785E+00  0.76431E+00  0.64003E+06  0.12997E+06 -0.88859E+05
                                    0.72970E+06  0.14414E+06 -0.50958E+05
    1     0.14892E+01 -0.43286E-02 -0.46178E+06 -0.25674E+05  0.76272E+05
                                   -0.43212E+06 -0.22821E+04 -0.41709E+05
    1     0.16372E+01  0.55278E+00  0.45242E+06  0.32223E+05 -0.15610E+06
                                    0.55590E+06  0.31437E+04 -0.31279E+05
    2     0.22643E+01 -0.26862E+00 -0.33944E+06  0.53029E+02  0.10546E+06
                                   -0.34034E+06  0.37902E+05 -0.35908E+05
    2     0.24722E+01  0.26914E+00  0.32303E+06  0.22035E+05 -0.17401E+06
                                    0.43751E+06 -0.39959E+05 -0.26836E+05
    2     0.32854E+01 -0.73853E+00 -0.22071E+06 -0.37992E+05  0.88828E+05
                                   -0.24256E+06  0.21291E+03 -0.24080E+05
    2     0.35522E+01 -0.22696E+00  0.20064E+06  0.79306E+05 -0.13450E+06
                                    0.30169E+06  0.13341E+04 -0.27384E+05
    3     0.40071E+01 -0.11511E+01 -0.15884E+06 -0.41756E+05  0.65958E+05
                                   -0.17994E+06 -0.12286E+05 -0.20055E+05
    3     0.43021E+01 -0.65540E+00  0.13830E+06  0.78843E+05 -0.10343E+06
                                    0.22275E+06  0.68585E+04 -0.23421E+05
    3     0.49683E+01 -0.17647E+01 -0.91309E+05 -0.18105E+05  0.47289E+05
                                   -0.10982E+06  0.39262E+04 -0.15892E+05
    3     0.52898E+01 -0.12853E+01  0.77680E+05  0.58266E+05 -0.68853E+05
                                    0.13906E+06  0.19612E+04 -0.17173E+05
    4     0.56565E+01 -0.22449E+01 -0.61713E+05 -0.78473E+04  0.28881E+05
                                   -0.69901E+05  0.18616E+04 -0.15722E+05
    4     0.59896E+01 -0.17736E+01  0.48154E+05  0.36084E+05 -0.48637E+05
                                    0.91680E+05 -0.50637E+04 -0.10510E+05
    4     0.65872E+01 -0.29201E+01 -0.27243E+05 -0.16422E+04  0.12489E+05
                                   -0.29944E+05  0.13636E+04 -0.85239E+04
    4     0.69297E+01 -0.24553E+01  0.19103E+05  0.23345E+05 -0.23648E+05
                                    0.43592E+05 -0.58227E+03 -0.90286E+04
    5     0.72637E+01 -0.34248E+01 -0.13720E+05  0.28855E+04  0.36500E+04
                                   -0.11230E+05  0.46905E+03 -0.69159E+04
    5     0.76088E+01 -0.29621E+01  0.83416E+04  0.11175E+05 -0.10889E+05
                                    0.19878E+05 -0.24208E+03 -0.44625E+04
    5     0.81873E+01 -0.41169E+01 -0.17608E+04  0.26508E+04 -0.21464E+03
                                    0.35638E+02  0.85833E+03 -0.21779E+04
    5     0.85338E+01 -0.36551E+01  0.39801E+02  0.62716E+03 -0.20871E+04
                                    0.22578E+04 -0.15872E+04 -0.86427E+03
  _____________________________________________________________________________


     Iteration No.  1     Error (root-mean-square value)=  0.8001E-01

     Iteration No.  2     Error (root-mean-square value)=  0.1542E-02

     Iteration No.  3     Error (root-mean-square value)=  0.2901E-03

     S O L U T I O N :


     LOAD, FS................................= -0.1000E+02
  __________________________________________________

     Node    x-coord.      y-coord.     U      V  
  __________________________________________________

       1   0.00000E+00   0.00000E+00   0.00000E+00   0.00000E+00
       2   0.90491E+00  -0.99216E-01  -0.95090E-01  -0.99216E-01
       3   0.17936E+01  -0.35875E+00  -0.20644E+00  -0.35875E+00
       4   0.26554E+01  -0.73922E+00  -0.34465E+00  -0.73922E+00
       5   0.34872E+01  -0.12143E+01  -0.51280E+00  -0.12143E+01
       6   0.42938E+01  -0.17571E+01  -0.70620E+00  -0.17571E+01
       7   0.50811E+01  -0.23430E+01  -0.91886E+00  -0.23430E+01
       8   0.58555E+01  -0.29579E+01  -0.11445E+01  -0.29579E+01
       9   0.66239E+01  -0.35892E+01  -0.13761E+01  -0.35892E+01
      10   0.73902E+01  -0.42289E+01  -0.16098E+01  -0.42289E+01
      11   0.81571E+01  -0.48705E+01  -0.18429E+01  -0.48705E+01
      12   0.00000E+00   0.50000E+00   0.00000E+00   0.00000E+00
      13   0.19649E+01   0.11829E+00  -0.35060E-01  -0.38171E+00
      14   0.37519E+01  -0.78858E+00  -0.24813E+00  -0.12886E+01
      15   0.53860E+01  -0.19457E+01  -0.61401E+00  -0.24457E+01
      16   0.69427E+01  -0.32041E+01  -0.10573E+01  -0.37041E+01
      17   0.84776E+01  -0.44871E+01  -0.15224E+01  -0.49871E+01
      18   0.00000E+00   0.10000E+01   0.00000E+00   0.00000E+00
      19   0.10920E+01   0.87914E+00   0.92020E-01  -0.12086E+00
      20   0.21324E+01   0.58144E+00   0.13240E+00  -0.41856E+00
      21   0.31059E+01   0.15219E+00   0.10585E+00  -0.84781E+00
      22   0.40133E+01  -0.36582E+00   0.13295E-01  -0.13658E+01
      23   0.48706E+01  -0.94032E+00  -0.12943E+00  -0.19403E+01
      24   0.56896E+01  -0.15506E+01  -0.31041E+00  -0.25506E+01
      25   0.64836E+01  -0.21799E+01  -0.51640E+00  -0.31799E+01
      26   0.72612E+01  -0.28194E+01  -0.73883E+00  -0.38194E+01
      27   0.80314E+01  -0.34614E+01  -0.96858E+00  -0.44614E+01
      28   0.87984E+01  -0.41039E+01  -0.12016E+01  -0.51039E+01
  __________________________________________________

  _____________________________________________________________________________

            x-coord.     y-coord.     SigmaXX     SigmaYY     SigmaXY
                                        SXX         SYY          SXY
  _____________________________________________________________________________

    1     0.40234E+00  0.18842E+00 -0.70088E+06 -0.20773E+06 -0.26122E+03
                                   -0.62983E+06 -0.19103E+06 -0.39653E+05
    1     0.45049E+00  0.76166E+00  0.69668E+06  0.14004E+06 -0.10254E+06
                                    0.80547E+06  0.15682E+06 -0.57207E+05
    1     0.14800E+01 -0.23325E-01 -0.49595E+06 -0.32783E+05  0.91979E+05
                                   -0.46411E+06 -0.30617E+04 -0.46354E+05
    1     0.16410E+01  0.52997E+00  0.48395E+06  0.42265E+05 -0.18097E+06
                                    0.61082E+06  0.43899E+04 -0.34173E+05
    2     0.22452E+01 -0.30997E+00 -0.35774E+06 -0.77148E+04  0.12378E+06
                                   -0.36358E+06  0.40541E+05 -0.39737E+05
    2     0.24706E+01  0.22053E+00  0.33735E+06  0.35438E+05 -0.19943E+06
                                    0.47808E+06 -0.43057E+05 -0.28907E+05
    2     0.32458E+01 -0.81723E+00 -0.22776E+06 -0.48882E+05  0.10232E+06
                                   -0.25817E+06  0.99186E+02 -0.25994E+05
    2     0.35336E+01 -0.31728E+00  0.20428E+06  0.98248E+05 -0.15058E+06
                                    0.32772E+06  0.19058E+04 -0.29931E+05
    3     0.39476E+01 -0.12612E+01 -0.16252E+06 -0.51248E+05  0.75069E+05
                                   -0.19078E+06 -0.13588E+05 -0.21592E+05
    3     0.42650E+01 -0.77960E+00  0.13863E+06  0.95147E+05 -0.11437E+06
                                    0.24120E+06  0.71809E+04 -0.25402E+05
    3     0.48775E+01 -0.19199E+01 -0.91359E+05 -0.23871E+05  0.53596E+05
                                   -0.11580E+06  0.45020E+04 -0.16986E+05
    3     0.52224E+01 -0.14569E+01  0.76479E+05  0.70358E+05 -0.74829E+05
                                    0.15031E+06  0.24329E+04 -0.18485E+05
    4     0.55401E+01 -0.24343E+01 -0.62225E+05 -0.11063E+05  0.32844E+05
                                   -0.73373E+05  0.17741E+04 -0.17096E+05
    4     0.58969E+01 -0.19807E+01  0.46919E+05  0.43913E+05 -0.52879E+05
                                    0.99144E+05 -0.55389E+04 -0.10943E+05
    4     0.64342E+01 -0.31569E+01 -0.27058E+05 -0.28899E+04  0.14294E+05
                                   -0.31103E+05  0.14878E+04 -0.90761E+04
    4     0.68006E+01 -0.27108E+01  0.18185E+05  0.27872E+05 -0.25206E+05
                                    0.47294E+05 -0.57912E+03 -0.96428E+04
    5     0.70829E+01 -0.36968E+01 -0.13987E+05  0.29792E+04  0.45280E+04
                                   -0.11442E+05  0.51557E+03 -0.75155E+04
    5     0.74521E+01 -0.32530E+01  0.81228E+04  0.13203E+05 -0.11602E+05
                                    0.21711E+05 -0.24490E+03 -0.46091E+04
    5     0.79685E+01 -0.44369E+01 -0.19049E+04  0.29451E+04 -0.84413E+02
                                    0.17787E+03  0.86713E+03 -0.24022E+04
    5     0.83390E+01 -0.39942E+01 -0.49084E+02  0.85117E+03 -0.22540E+04
                                    0.25436E+04 -0.17372E+04 -0.83819E+03
  _____________________________________________________________________________


     Iteration No.  1     Error (root-mean-square value)=  0.6986E-01

     Iteration No.  2     Error (root-mean-square value)=  0.1240E-02

     Iteration No.  3     Error (root-mean-square value)=  0.3985E-03

     S O L U T I O N :


     LOAD, FS................................= -0.1100E+02
  __________________________________________________

     Node    x-coord.      y-coord.     U      V  
  __________________________________________________

       1   0.00000E+00   0.00000E+00   0.00000E+00   0.00000E+00
       2   0.89720E+00  -0.10662E+00  -0.10280E+00  -0.10662E+00
       3   0.17746E+01  -0.38494E+00  -0.22537E+00  -0.38494E+00
       4   0.26203E+01  -0.79142E+00  -0.37967E+00  -0.79142E+00
       5   0.34308E+01  -0.12973E+01  -0.56920E+00  -0.12973E+01
       6   0.42117E+01  -0.18739E+01  -0.78828E+00  -0.18739E+01
       7   0.49703E+01  -0.24952E+01  -0.10297E+01  -0.24952E+01
       8   0.57138E+01  -0.31463E+01  -0.12862E+01  -0.31463E+01
       9   0.64501E+01  -0.38144E+01  -0.15499E+01  -0.38144E+01
      10   0.71839E+01  -0.44911E+01  -0.18161E+01  -0.44911E+01
      11   0.79180E+01  -0.51699E+01  -0.20820E+01  -0.51699E+01
      12   0.00000E+00   0.50000E+00   0.00000E+00   0.00000E+00
      13   0.19590E+01   0.87692E-01  -0.40953E-01  -0.41231E+00
      14   0.37129E+01  -0.88293E+00  -0.28709E+00  -0.13829E+01
      15   0.52936E+01  -0.21127E+01  -0.70640E+00  -0.26127E+01
      16   0.67875E+01  -0.34454E+01  -0.12125E+01  -0.39454E+01
      17   0.82571E+01  -0.48028E+01  -0.17429E+01  -0.53028E+01
      18   0.00000E+00   0.10000E+01   0.00000E+00   0.00000E+00
      19   0.10992E+01   0.86815E+00   0.99166E-01  -0.13185E+00
      20   0.21389E+01   0.54553E+00   0.13893E+00  -0.45447E+00
      21   0.31023E+01   0.83189E-01   0.10230E+00  -0.91681E+00
      22   0.39914E+01  -0.47150E+00  -0.86300E-02  -0.14715E+01
      23   0.48246E+01  -0.10839E+01  -0.17540E+00  -0.20839E+01
      24   0.56154E+01  -0.17325E+01  -0.38456E+00  -0.27325E+01
      25   0.63789E+01  -0.23997E+01  -0.62107E+00  -0.33997E+01
      26   0.71245E+01  -0.30769E+01  -0.87549E+00  -0.40769E+01
      27   0.78623E+01  -0.37563E+01  -0.11377E+01  -0.47563E+01
      28   0.85965E+01  -0.44361E+01  -0.14035E+01  -0.54361E+01
  __________________________________________________

  _____________________________________________________________________________

            x-coord.     y-coord.     SigmaXX     SigmaYY     SigmaXY
                                        SXX         SYY          SXY
  _____________________________________________________________________________

    1     0.40100E+00  0.18649E+00 -0.75563E+06 -0.22813E+06  0.23692E+04
                                   -0.67406E+06 -0.20881E+06 -0.43193E+05
    1     0.45307E+00  0.75903E+00  0.75032E+06  0.14948E+06 -0.11657E+06
                                    0.87948E+06  0.16894E+06 -0.63488E+05
    1     0.14709E+01 -0.41388E-01 -0.52679E+06 -0.40510E+05  0.10786E+06
                                   -0.49342E+06 -0.39064E+04 -0.50925E+05
    1     0.16444E+01  0.50797E+00  0.51179E+06  0.53565E+05 -0.20593E+06
                                    0.66368E+06  0.58213E+04 -0.37011E+05
    2     0.22263E+01 -0.34905E+00 -0.37263E+06 -0.16505E+05  0.14159E+06
                                   -0.38437E+06  0.42899E+05 -0.43489E+05
    2     0.24681E+01  0.17403E+00  0.34792E+06  0.50467E+05 -0.22404E+06
                                    0.51645E+06 -0.45913E+05 -0.30825E+05
    2     0.32063E+01 -0.89086E+00 -0.23209E+06 -0.60382E+05  0.11480E+06
                                   -0.27182E+06 -0.12556E+02 -0.27761E+05
    2     0.35135E+01 -0.40266E+00  0.20527E+06  0.11810E+06 -0.16512E+06
                                    0.35192E+06  0.25460E+04 -0.32355E+05
    3     0.38883E+01 -0.13635E+01 -0.16426E+06 -0.60970E+05  0.83157E+05
                                   -0.20003E+06 -0.14854E+05 -0.23015E+05
    3     0.42261E+01 -0.89609E+00  0.13708E+06  0.11183E+06 -0.12385E+06
                                    0.25818E+06  0.74482E+04 -0.27223E+05
    3     0.47870E+01 -0.20629E+01 -0.90103E+05 -0.29832E+05  0.59069E+05
                                   -0.12071E+06  0.50762E+04 -0.17955E+05
    3     0.51530E+01 -0.16165E+01  0.74275E+05  0.82535E+05 -0.79644E+05
                                    0.16060E+06  0.29220E+04 -0.19672E+05
    4     0.54242E+01 -0.26081E+01 -0.61935E+05 -0.14367E+05  0.36291E+05
                                   -0.76122E+05  0.16538E+04 -0.18373E+05
    4     0.58023E+01 -0.21722E+01  0.45040E+05  0.51803E+05 -0.56354E+05
                                    0.10599E+06 -0.59851E+04 -0.11260E+05
    4     0.62820E+01 -0.33732E+01 -0.26482E+05 -0.41793E+04  0.15825E+05
                                   -0.31910E+05  0.16033E+04 -0.95578E+04
    4     0.66698E+01 -0.29457E+01  0.17041E+05  0.32359E+05 -0.26340E+05
                                    0.50721E+05 -0.56713E+03 -0.10178E+05
    5     0.69032E+01 -0.39445E+01 -0.14065E+05  0.30434E+04  0.53447E+04
                                   -0.11493E+05  0.56020E+03 -0.80722E+04
    5     0.72938E+01 -0.35194E+01  0.78259E+04  0.15208E+05 -0.12156E+05
                                    0.23437E+05 -0.24179E+03 -0.47006E+04
    5     0.77511E+01 -0.47275E+01 -0.20323E+04  0.32278E+04  0.57624E+02
                                    0.33742E+03  0.86374E+03 -0.26178E+04
    5     0.81431E+01 -0.43037E+01 -0.13918E+03  0.10829E+04 -0.24069E+04
                                    0.28274E+04 -0.18787E+04 -0.79432E+03
  _____________________________________________________________________________


     Iteration No.  1     Error (root-mean-square value)=  0.6149E-01

     Iteration No.  2     Error (root-mean-square value)=  0.1001E-02

     Iteration No.  3     Error (root-mean-square value)=  0.5125E-03

     S O L U T I O N :


     LOAD, FS................................= -0.1200E+02
  __________________________________________________

     Node    x-coord.      y-coord.     U      V  
  __________________________________________________

       1   0.00000E+00   0.00000E+00   0.00000E+00   0.00000E+00
       2   0.88983E+00  -0.11364E+00  -0.11017E+00  -0.11364E+00
       3   0.17563E+01  -0.40963E+00  -0.24373E+00  -0.40963E+00
       4   0.25861E+01  -0.84026E+00  -0.41389E+00  -0.84026E+00
       5   0.33755E+01  -0.13744E+01  -0.62450E+00  -0.13744E+01
       6   0.41311E+01  -0.19817E+01  -0.86887E+00  -0.19817E+01
       7   0.48616E+01  -0.26347E+01  -0.11384E+01  -0.26347E+01
       8   0.55748E+01  -0.33183E+01  -0.14252E+01  -0.33183E+01
       9   0.62797E+01  -0.40191E+01  -0.17203E+01  -0.40191E+01
      10   0.69815E+01  -0.47289E+01  -0.20185E+01  -0.47289E+01
      11   0.76836E+01  -0.54408E+01  -0.23164E+01  -0.54408E+01
      12   0.00000E+00   0.50000E+00   0.00000E+00   0.00000E+00
      13   0.19530E+01   0.58450E-01  -0.47023E-01  -0.44155E+00
      14   0.36735E+01  -0.97134E+00  -0.32646E+00  -0.14713E+01
      15   0.52013E+01  -0.22668E+01  -0.79866E+00  -0.27668E+01
      16   0.66336E+01  -0.36661E+01  -0.13664E+01  -0.41661E+01
      17   0.80392E+01  -0.50897E+01  -0.19608E+01  -0.55897E+01
      18   0.00000E+00   0.10000E+01   0.00000E+00   0.00000E+00
      19   0.11060E+01   0.85744E+00   0.10595E+00  -0.14256E+00
      20   0.21445E+01   0.51093E+00   0.14454E+00  -0.48907E+00
      21   0.30972E+01   0.17436E-01   0.97247E-01  -0.98256E+00
      22   0.39676E+01  -0.57118E+00  -0.32433E-01  -0.15712E+01
      23   0.47767E+01  -0.12182E+01  -0.22332E+00  -0.22182E+01
      24   0.55395E+01  -0.19014E+01  -0.46045E+00  -0.29014E+01
      25   0.62729E+01  -0.26026E+01  -0.72705E+00  -0.36026E+01
      26   0.69871E+01  -0.33133E+01  -0.10129E+01  -0.43133E+01
      27   0.76930E+01  -0.40260E+01  -0.13070E+01  -0.50260E+01
      28   0.83952E+01  -0.47390E+01  -0.16048E+01  -0.57390E+01
  __________________________________________________

  _____________________________________________________________________________

            x-coord.     y-coord.     SigmaXX     SigmaYY     SigmaXY
                                        SXX         SYY          SXY
  _____________________________________________________________________________

    1     0.39974E+00  0.18461E+00 -0.80768E+06 -0.24817E+06  0.50773E+04
                                   -0.71554E+06 -0.22621E+06 -0.46729E+05
    1     0.45558E+00  0.75643E+00  0.80111E+06  0.15836E+06 -0.13088E+06
                                    0.95172E+06  0.18055E+06 -0.69783E+05
    1     0.14621E+01 -0.58577E-01 -0.55452E+06 -0.48749E+05  0.12371E+06
                                   -0.52026E+06 -0.48002E+04 -0.55415E+05
    1     0.16473E+01  0.48676E+00  0.53622E+06  0.66019E+05 -0.23071E+06
                                    0.71448E+06  0.74266E+04 -0.39804E+05
    2     0.22077E+01 -0.38600E+00 -0.38448E+06 -0.26082E+05  0.15866E+06
                                   -0.40291E+06  0.45002E+05 -0.47163E+05
    2     0.24648E+01  0.12956E+00  0.35514E+06  0.66841E+05 -0.24759E+06
                                    0.55265E+06 -0.48551E+05 -0.32601E+05
    2     0.31672E+01 -0.95976E+00 -0.23410E+06 -0.72220E+05  0.12612E+06
                                   -0.28368E+06 -0.11353E+03 -0.29387E+05
    2     0.34922E+01 -0.48333E+00  0.20405E+06  0.13850E+06 -0.17801E+06
                                    0.37435E+06  0.32458E+04 -0.34660E+05
    3     0.38295E+01 -0.14586E+01 -0.16441E+06 -0.70684E+05  0.90154E+05
                                   -0.20785E+06 -0.16085E+05 -0.24334E+05
    3     0.41859E+01 -0.10053E+01  0.13407E+06  0.12859E+06 -0.13187E+06
                                    0.27376E+06  0.76685E+04 -0.28887E+05
    3     0.46975E+01 -0.21949E+01 -0.87827E+05 -0.35801E+05  0.63671E+05
                                   -0.12466E+06  0.56447E+04 -0.18809E+05
    3     0.50825E+01 -0.17648E+01  0.71355E+05  0.94566E+05 -0.83341E+05
                                    0.16999E+06  0.34225E+04 -0.20741E+05
    4     0.53098E+01 -0.27677E+01 -0.61026E+05 -0.17637E+05  0.39203E+05
                                   -0.78217E+05  0.15078E+04 -0.19557E+05
    4     0.57069E+01 -0.23491E+01  0.42707E+05  0.59600E+05 -0.59094E+05
                                    0.11224E+06 -0.64035E+04 -0.11474E+05
    4     0.61319E+01 -0.35707E+01 -0.25612E+05 -0.54476E+04  0.17074E+05
                                   -0.32398E+05  0.17101E+04 -0.99754E+04
    4     0.65389E+01 -0.31613E+01  0.15764E+05  0.36729E+05 -0.27086E+05
                                    0.53887E+05 -0.54777E+03 -0.10641E+05
    5     0.67263E+01 -0.41699E+01 -0.13991E+05  0.30970E+04  0.60874E+04
                                   -0.11401E+05  0.60269E+03 -0.85879E+04
    5     0.71360E+01 -0.37633E+01  0.74831E+04  0.17162E+05 -0.12568E+05
                                    0.25060E+05 -0.23294E+03 -0.47429E+04
    5     0.75372E+01 -0.49912E+01 -0.21446E+04  0.34993E+04  0.20786E+03
                                    0.51167E+03  0.84962E+03 -0.28250E+04
    5     0.79483E+01 -0.45859E+01 -0.22858E+03  0.13188E+04 -0.25482E+04
                                    0.31081E+04 -0.20120E+04 -0.73475E+03
  _____________________________________________________________________________


     Iteration No.  1     Error (root-mean-square value)=  0.5451E-01

     Iteration No.  2     Error (root-mean-square value)=  0.8093E-03

     S O L U T I O N :


     LOAD, FS................................= -0.1300E+02
  __________________________________________________

     Node    x-coord.      y-coord.     U      V  
  __________________________________________________

       1   0.00000E+00   0.00000E+00   0.00000E+00   0.00000E+00
       2   0.88304E+00  -0.12010E+00  -0.11696E+00  -0.12010E+00
       3   0.17390E+01  -0.43225E+00  -0.26099E+00  -0.43225E+00
       4   0.25535E+01  -0.88482E+00  -0.44647E+00  -0.88482E+00
       5   0.33225E+01  -0.14444E+01  -0.67752E+00  -0.14444E+01
       6   0.40535E+01  -0.20794E+01  -0.94646E+00  -0.20794E+01
       7   0.47566E+01  -0.27607E+01  -0.12434E+01  -0.27607E+01
       8   0.54404E+01  -0.34732E+01  -0.15596E+01  -0.34732E+01
       9   0.61149E+01  -0.42032E+01  -0.18851E+01  -0.42032E+01
      10   0.67857E+01  -0.49423E+01  -0.22143E+01  -0.49423E+01
      11   0.74568E+01  -0.56835E+01  -0.25432E+01  -0.56835E+01
      12   0.00000E+00   0.50000E+00   0.00000E+00   0.00000E+00
      13   0.19470E+01   0.31319E-01  -0.52967E-01  -0.46868E+00
      14   0.36349E+01  -0.10525E+01  -0.36508E+00  -0.15525E+01
      15   0.51111E+01  -0.24070E+01  -0.88886E+00  -0.29070E+01
      16   0.64835E+01  -0.38655E+01  -0.15165E+01  -0.43655E+01
      17   0.78270E+01  -0.53480E+01  -0.21730E+01  -0.58480E+01
      18   0.00000E+00   0.10000E+01   0.00000E+00   0.00000E+00
      19   0.11122E+01   0.84733E+00   0.11223E+00  -0.15267E+00
      20   0.21493E+01   0.47855E+00   0.14929E+00  -0.52145E+00
      21   0.30912E+01  -0.43708E-01   0.91232E-01  -0.10437E+01
      22   0.39430E+01  -0.66331E+00  -0.57013E-01  -0.16633E+01
      23   0.47284E+01  -0.13417E+01  -0.27158E+00  -0.23417E+01
      24   0.54640E+01  -0.20558E+01  -0.53605E+00  -0.30558E+01
      25   0.61681E+01  -0.27874E+01  -0.83194E+00  -0.37874E+01
      26   0.68516E+01  -0.35282E+01  -0.11484E+01  -0.45282E+01
      27   0.75266E+01  -0.42705E+01  -0.14734E+01  -0.52705E+01
      28   0.81976E+01  -0.50129E+01  -0.18024E+01  -0.60129E+01
  __________________________________________________

  _____________________________________________________________________________

            x-coord.     y-coord.     SigmaXX     SigmaYY     SigmaXY
                                        SXX         SYY          SXY
  _____________________________________________________________________________

    1     0.39864E+00  0.18286E+00 -0.85474E+06 -0.26702E+06  0.76830E+04
                                   -0.75260E+06 -0.24257E+06 -0.50109E+05
    1     0.45795E+00  0.75396E+00  0.84794E+06  0.16630E+06 -0.14502E+06
                                    0.10204E+07  0.19118E+06 -0.75972E+05
    1     0.14538E+01 -0.74439E-01 -0.57886E+06 -0.57023E+05  0.13894E+06
                                   -0.54426E+06 -0.55913E+04 -0.59776E+05
    1     0.16499E+01  0.46692E+00  0.55741E+06  0.78807E+05 -0.25479E+06
                                    0.76275E+06  0.88152E+04 -0.42506E+05
    2     0.21899E+01 -0.41998E+00 -0.39387E+06 -0.36070E+05  0.17484E+06
                                   -0.41956E+06  0.47025E+05 -0.50637E+05
    2     0.24610E+01  0.88188E-01  0.35986E+06  0.84001E+05 -0.26986E+06
                                    0.58701E+06 -0.51016E+05 -0.34281E+05
    2     0.31295E+01 -0.10228E+01 -0.23470E+06 -0.84170E+05  0.13636E+06
                                   -0.29434E+06 -0.21144E+03 -0.30935E+05
    2     0.34707E+01 -0.55785E+00  0.20152E+06  0.15906E+06 -0.18947E+06
                                    0.39564E+06  0.39303E+04 -0.36854E+05
    3     0.37727E+01 -0.15453E+01 -0.16368E+06 -0.80272E+05  0.96266E+05
                                   -0.21480E+06 -0.17241E+05 -0.25593E+05
    3     0.41458E+01 -0.11057E+01  0.13029E+06  0.14532E+06 -0.13871E+06
                                    0.28858E+06  0.78517E+04 -0.30444E+05
    3     0.46108E+01 -0.23146E+01 -0.85031E+05 -0.41707E+05  0.67573E+05
                                   -0.12806E+06  0.62136E+04 -0.19605E+05
    3     0.50128E+01 -0.19004E+01  0.68170E+05  0.10645E+06 -0.86216E+05
                                    0.17897E+06  0.39274E+04 -0.21726E+05
    4     0.51988E+01 -0.29120E+01 -0.59798E+05 -0.20843E+05  0.41717E+05
                                   -0.79947E+05  0.13666E+04 -0.20681E+05
    4     0.56129E+01 -0.25103E+01  0.40220E+05  0.67371E+05 -0.61309E+05
                                    0.11828E+06 -0.67773E+04 -0.11630E+05
    4     0.59864E+01 -0.37489E+01 -0.24599E+05 -0.66643E+04  0.18116E+05
                                   -0.32711E+05  0.18313E+04 -0.10362E+05
    4     0.64103E+01 -0.33571E+01  0.14504E+05  0.41054E+05 -0.27577E+05
                                    0.57004E+05 -0.50411E+03 -0.11057E+05
    5     0.65546E+01 -0.43729E+01 -0.13824E+05  0.31647E+04  0.67868E+04
                                   -0.11226E+05  0.66881E+03 -0.90855E+04
    5     0.69813E+01 -0.39841E+01  0.71694E+04  0.19129E+05 -0.12903E+05
                                    0.26701E+05 -0.19806E+03 -0.47552E+04
    5     0.73297E+01 -0.52281E+01 -0.22350E+04  0.37874E+04  0.37014E+03
                                    0.71024E+03  0.84962E+03 -0.30336E+04
    5     0.77577E+01 -0.48407E+01 -0.29235E+03  0.15928E+04 -0.26904E+04
                                    0.34257E+04 -0.21186E+04 -0.66654E+03
  _____________________________________________________________________________


     Iteration No.  1     Error (root-mean-square value)=  0.4916E-01

     Iteration No.  2     Error (root-mean-square value)=  0.6680E-03

     S O L U T I O N :


     LOAD, FS................................= -0.1400E+02
  __________________________________________________

     Node    x-coord.      y-coord.     U      V  
  __________________________________________________

       1   0.00000E+00   0.00000E+00   0.00000E+00   0.00000E+00
       2   0.87630E+00  -0.12645E+00  -0.12370E+00  -0.12645E+00
       3   0.17218E+01  -0.45422E+00  -0.27817E+00  -0.45422E+00
       4   0.25212E+01  -0.92765E+00  -0.47884E+00  -0.92765E+00
       5   0.32700E+01  -0.15109E+01  -0.72998E+00  -0.15109E+01
       6   0.39771E+01  -0.21712E+01  -0.10229E+01  -0.21712E+01
       7   0.46536E+01  -0.28782E+01  -0.13464E+01  -0.28782E+01
       8   0.53091E+01  -0.36165E+01  -0.16909E+01  -0.36165E+01
       9   0.59542E+01  -0.43724E+01  -0.20458E+01  -0.43724E+01
      10   0.65951E+01  -0.51376E+01  -0.24049E+01  -0.51376E+01
      11   0.72363E+01  -0.59049E+01  -0.27637E+01  -0.59049E+01
      12   0.00000E+00   0.50000E+00   0.00000E+00   0.00000E+00
      13   0.19408E+01   0.46500E-02  -0.59233E-01  -0.49535E+00
      14   0.35957E+01  -0.11300E+01  -0.40429E+00  -0.16300E+01
      15   0.50214E+01  -0.25383E+01  -0.97863E+00  -0.30383E+01
      16   0.63358E+01  -0.40496E+01  -0.16642E+01  -0.45496E+01
      17   0.76195E+01  -0.55843E+01  -0.23805E+01  -0.60843E+01
      18   0.00000E+00   0.10000E+01   0.00000E+00   0.00000E+00
      19   0.11183E+01   0.83719E+00   0.11835E+00  -0.16281E+00
      20   0.21533E+01   0.44652E+00   0.15333E+00  -0.55348E+00
      21   0.30839E+01  -0.10324E+00   0.83878E-01  -0.11032E+01
      22   0.39167E+01  -0.75177E+00  -0.83263E-01  -0.17518E+01
      23   0.46786E+01  -0.14588E+01  -0.32140E+00  -0.24588E+01
      24   0.53873E+01  -0.22010E+01  -0.61270E+00  -0.32010E+01
      25   0.60629E+01  -0.29598E+01  -0.93709E+00  -0.39598E+01
      26   0.67169E+01  -0.37271E+01  -0.12831E+01  -0.47271E+01
      27   0.73621E+01  -0.44957E+01  -0.16379E+01  -0.54957E+01
      28   0.80031E+01  -0.52642E+01  -0.19969E+01  -0.62642E+01
  __________________________________________________

  _____________________________________________________________________________

            x-coord.     y-coord.     SigmaXX     SigmaYY     SigmaXY
                                        SXX         SYY          SXY
  _____________________________________________________________________________

    1     0.39755E+00  0.18108E+00 -0.90158E+06 -0.28618E+06  0.10364E+05
                                   -0.78903E+06 -0.25914E+06 -0.53643E+05
    1     0.46032E+00  0.75143E+00  0.89337E+06  0.17422E+06 -0.15961E+06
                                    0.10890E+07  0.20184E+06 -0.82248E+05
    1     0.14455E+01 -0.90005E-01 -0.60109E+06 -0.65949E+05  0.15426E+06
                                   -0.56676E+06 -0.65514E+04 -0.64085E+05
    1     0.16521E+01  0.44726E+00  0.57582E+06  0.93148E+05 -0.27866E+06
                                    0.80952E+06  0.10700E+05 -0.45234E+05
    2     0.21720E+01 -0.45301E+00 -0.40070E+06 -0.46580E+05  0.19004E+06
                                   -0.43420E+06  0.48701E+05 -0.54139E+05
    2     0.24564E+01  0.47631E-01  0.36163E+06  0.10224E+06 -0.29082E+06
                                    0.61910E+06 -0.53278E+05 -0.35814E+05
    2     0.30917E+01 -0.10831E+01 -0.23319E+06 -0.95983E+05  0.14523E+06
                                   -0.30306E+06 -0.27836E+03 -0.32312E+05
    2     0.34479E+01 -0.62968E+00  0.19716E+06  0.17965E+06 -0.19903E+06
                                    0.41476E+06  0.47189E+04 -0.38932E+05
    3     0.37161E+01 -0.16275E+01 -0.16161E+06 -0.89399E+05  0.10110E+06
                                   -0.22010E+06 -0.18406E+05 -0.26731E+05
    3     0.41044E+01 -0.12014E+01  0.12536E+06  0.16151E+06 -0.14393E+06
                                    0.30158E+06  0.80014E+04 -0.31814E+05
    3     0.45250E+01 -0.24269E+01 -0.81426E+05 -0.47241E+05  0.70487E+05
                                   -0.13032E+06  0.67557E+04 -0.20258E+05
    3     0.49423E+01 -0.20281E+01  0.64473E+05  0.11767E+06 -0.87928E+05
                                    0.18669E+06  0.44304E+04 -0.22581E+05
    4     0.50895E+01 -0.30464E+01 -0.58086E+05 -0.23767E+05  0.43605E+05
                                   -0.80903E+05  0.11817E+04 -0.21688E+05
    4     0.55188E+01 -0.26610E+01  0.37405E+05  0.74640E+05 -0.62753E+05
                                    0.12345E+06 -0.71489E+04 -0.11672E+05
    4     0.58437E+01 -0.39134E+01 -0.23376E+05 -0.77475E+04  0.18826E+05
                                   -0.32650E+05  0.19153E+04 -0.10668E+05
    4     0.62827E+01 -0.35386E+01  0.13144E+05  0.45019E+05 -0.27679E+05
                                    0.59671E+05 -0.47994E+03 -0.11388E+05
    5     0.63868E+01 -0.45594E+01 -0.13537E+05  0.32411E+04  0.73639E+04
                                   -0.10890E+05  0.70050E+03 -0.95248E+04
    5     0.68285E+01 -0.41878E+01  0.67910E+04  0.20915E+05 -0.13081E+05
                                    0.28114E+05 -0.18437E+03 -0.47144E+04
    5     0.71273E+01 -0.54447E+01 -0.23257E+04  0.40330E+04  0.52734E+03
                                    0.90405E+03  0.81173E+03 -0.32231E+04
    5     0.75704E+01 -0.50747E+01 -0.38429E+03  0.18218E+04 -0.28129E+04
                                    0.36883E+04 -0.22433E+04 -0.58007E+03
  _____________________________________________________________________________


     Iteration No.  1     Error (root-mean-square value)=  0.4428E-01

     Iteration No.  2     Error (root-mean-square value)=  0.5505E-03

     S O L U T I O N :


     LOAD, FS................................= -0.1500E+02
  __________________________________________________

     Node    x-coord.      y-coord.     U      V  
  __________________________________________________

       1   0.00000E+00   0.00000E+00   0.00000E+00   0.00000E+00
       2   0.86982E+00  -0.13252E+00  -0.13018E+00  -0.13252E+00
       3   0.17052E+01  -0.47505E+00  -0.29483E+00  -0.47505E+00
       4   0.24897E+01  -0.96794E+00  -0.51034E+00  -0.96794E+00
       5   0.32190E+01  -0.15730E+01  -0.78104E+00  -0.15730E+01
       6   0.39027E+01  -0.22563E+01  -0.10973E+01  -0.22563E+01
       7   0.45537E+01  -0.29864E+01  -0.14463E+01  -0.29864E+01
       8   0.51818E+01  -0.37479E+01  -0.18182E+01  -0.37479E+01
       9   0.57987E+01  -0.45268E+01  -0.22013E+01  -0.45268E+01
      10   0.64108E+01  -0.53152E+01  -0.25892E+01  -0.53152E+01
      11   0.70233E+01  -0.61057E+01  -0.29767E+01  -0.61057E+01
      12   0.00000E+00   0.50000E+00   0.00000E+00   0.00000E+00
      13   0.19344E+01  -0.20927E-01  -0.65584E-01  -0.52093E+00
      14   0.35568E+01  -0.12029E+01  -0.44322E+00  -0.17029E+01
      15   0.49333E+01  -0.26598E+01  -0.10667E+01  -0.31598E+01
      16   0.61919E+01  -0.42183E+01  -0.18081E+01  -0.47183E+01
      17   0.74180E+01  -0.57995E+01  -0.25820E+01  -0.62995E+01
      18   0.00000E+00   0.10000E+01   0.00000E+00   0.00000E+00
      19   0.11242E+01   0.82729E+00   0.12418E+00  -0.17271E+00
      20   0.21567E+01   0.41560E+00   0.15669E+00  -0.58440E+00
      21   0.30756E+01  -0.16004E+00   0.75601E-01  -0.11600E+01
      22   0.38896E+01  -0.83531E+00  -0.11035E+00  -0.18353E+01
      23   0.46284E+01  -0.15685E+01  -0.37160E+00  -0.25685E+01
      24   0.53110E+01  -0.23359E+01  -0.68901E+00  -0.33359E+01
      25   0.59591E+01  -0.31190E+01  -0.10409E+01  -0.41190E+01
      26   0.65846E+01  -0.39101E+01  -0.14154E+01  -0.49101E+01
      27   0.72011E+01  -0.47021E+01  -0.17989E+01  -0.57021E+01
      28   0.78132E+01  -0.54939E+01  -0.21868E+01  -0.64939E+01
  __________________________________________________

  _____________________________________________________________________________

            x-coord.     y-coord.     SigmaXX     SigmaYY     SigmaXY
                                        SXX         SYY          SXY
  _____________________________________________________________________________

    1     0.39652E+00  0.17933E+00 -0.94629E+06 -0.30497E+06  0.12997E+05
                                   -0.82340E+06 -0.27537E+06 -0.57200E+05
    1     0.46262E+00  0.74892E+00  0.93650E+06  0.18176E+06 -0.17431E+06
                                    0.11560E+07  0.21212E+06 -0.88508E+05
    1     0.14374E+01 -0.10489E+00 -0.62095E+06 -0.75124E+05  0.16923E+06
                                   -0.58741E+06 -0.75202E+04 -0.68297E+05
    1     0.16540E+01  0.42824E+00  0.59159E+06  0.10834E+06 -0.30194E+06
                                    0.85444E+06  0.12730E+05 -0.47943E+05
    2     0.21544E+01 -0.48438E+00 -0.40548E+06 -0.57311E+05  0.20422E+06
                                   -0.44714E+06  0.50193E+05 -0.57568E+05
    2     0.24513E+01  0.87663E-02  0.36118E+06  0.12111E+06 -0.31040E+06
                                    0.64928E+06 -0.55394E+05 -0.37229E+05
    2     0.30547E+01 -0.11398E+01 -0.23038E+06 -0.10754E+06  0.15289E+06
                                   -0.31044E+06 -0.31383E+03 -0.33569E+05
    2     0.34247E+01 -0.69769E+00  0.19172E+06  0.20001E+06 -0.20701E+06
                                    0.43240E+06  0.55438E+04 -0.40903E+05
    3     0.36606E+01 -0.17041E+01 -0.15883E+06 -0.98048E+05  0.10494E+06
                                   -0.22435E+06 -0.19543E+05 -0.27791E+05
    3     0.40629E+01 -0.12913E+01  0.11988E+06  0.17719E+06 -0.14792E+06
                                    0.31346E+06  0.81231E+04 -0.33044E+05
    3     0.44412E+01 -0.25308E+01 -0.77449E+05 -0.52419E+05  0.72659E+05
                                   -0.13190E+06  0.72873E+04 -0.20823E+05
    3     0.48724E+01 -0.21470E+01  0.60652E+05  0.12836E+06 -0.88824E+05
                                    0.19371E+06  0.49340E+04 -0.23342E+05
    4     0.49832E+01 -0.31701E+01 -0.56158E+05 -0.26436E+05  0.45056E+05
                                   -0.81400E+05  0.98762E+03 -0.22618E+05
    4     0.54261E+01 -0.28005E+01  0.34526E+05  0.81569E+05 -0.63676E+05
                                    0.12817E+06 -0.74981E+04 -0.11643E+05
    4     0.57052E+01 -0.40640E+01 -0.22073E+05 -0.86963E+04  0.19311E+05
                                   -0.32373E+05  0.19933E+04 -0.10929E+05
    4     0.61576E+01 -0.37057E+01  0.11820E+05  0.48762E+05 -0.27541E+05
                                    0.62142E+05 -0.45006E+03 -0.11664E+05
    5     0.62241E+01 -0.47297E+01 -0.13187E+05  0.33466E+04  0.78688E+04
                                   -0.10461E+05  0.73124E+03 -0.99318E+04
    5     0.66792E+01 -0.43747E+01  0.64269E+04  0.22616E+05 -0.13177E+05
                                    0.29450E+05 -0.16418E+03 -0.46401E+04
    5     0.69314E+01 -0.56418E+01 -0.24067E+04  0.42719E+04  0.68721E+03
                                    0.11064E+04  0.76832E+03 -0.34058E+04
    5     0.73879E+01 -0.52884E+01 -0.47179E+03  0.20531E+04 -0.29308E+04
                                    0.39497E+04 -0.23600E+04 -0.48370E+03
  _____________________________________________________________________________


     Iteration No.  1     Error (root-mean-square value)=  0.4006E-01

     Iteration No.  2     Error (root-mean-square value)=  0.4518E-03

     S O L U T I O N :


     LOAD, FS................................= -0.1600E+02
  __________________________________________________

     Node    x-coord.      y-coord.     U      V  
  __________________________________________________

       1   0.00000E+00   0.00000E+00   0.00000E+00   0.00000E+00
       2   0.86359E+00  -0.13834E+00  -0.13641E+00  -0.13834E+00
       3   0.16890E+01  -0.49481E+00  -0.31098E+00  -0.49481E+00
       4   0.24590E+01  -0.10059E+01  -0.54096E+00  -0.10059E+01
       5   0.31694E+01  -0.16310E+01  -0.83061E+00  -0.16310E+01
       6   0.38307E+01  -0.23352E+01  -0.11693E+01  -0.23352E+01
       7   0.44570E+01  -0.30861E+01  -0.15430E+01  -0.30861E+01
       8   0.50588E+01  -0.38683E+01  -0.19412E+01  -0.38683E+01
       9   0.56487E+01  -0.46679E+01  -0.23513E+01  -0.46679E+01
      10   0.62334E+01  -0.54769E+01  -0.27666E+01  -0.54769E+01
      11   0.68183E+01  -0.62880E+01  -0.31817E+01  -0.62880E+01
      12   0.00000E+00   0.50000E+00   0.00000E+00   0.00000E+00
      13   0.19280E+01  -0.45455E-01  -0.71987E-01  -0.54546E+00
      14   0.35183E+01  -0.12714E+01  -0.48171E+00  -0.17714E+01
      15   0.48473E+01  -0.27725E+01  -0.11527E+01  -0.32725E+01
      16   0.60522E+01  -0.43731E+01  -0.19478E+01  -0.48731E+01
      17   0.72233E+01  -0.59956E+01  -0.27767E+01  -0.64956E+01
      18   0.00000E+00   0.10000E+01   0.00000E+00   0.00000E+00
      19   0.11297E+01   0.81764E+00   0.12974E+00  -0.18236E+00
      20   0.21594E+01   0.38577E+00   0.15944E+00  -0.61423E+00
      21   0.30666E+01  -0.21422E+00   0.66559E-01  -0.12142E+01
      22   0.38620E+01  -0.91422E+00  -0.13802E+00  -0.19142E+01
      23   0.45782E+01  -0.16712E+01  -0.42184E+00  -0.26712E+01
      24   0.52355E+01  -0.24614E+01  -0.76451E+00  -0.34614E+01
      25   0.58570E+01  -0.32663E+01  -0.11430E+01  -0.42663E+01
      26   0.64553E+01  -0.40786E+01  -0.15447E+01  -0.50786E+01
      27   0.70442E+01  -0.48913E+01  -0.19558E+01  -0.58913E+01
      28   0.76288E+01  -0.57038E+01  -0.23712E+01  -0.67038E+01
  __________________________________________________

  _____________________________________________________________________________

            x-coord.     y-coord.     SigmaXX     SigmaYY     SigmaXY
                                        SXX         SYY          SXY
  _____________________________________________________________________________

    1     0.39555E+00  0.17762E+00 -0.98894E+06 -0.32336E+06  0.15552E+05
                                   -0.85583E+06 -0.29125E+06 -0.60779E+05
    1     0.46486E+00  0.74644E+00  0.97742E+06  0.18897E+06 -0.18907E+06
                                    0.12215E+07  0.22205E+06 -0.94741E+05
    1     0.14296E+01 -0.11914E+00 -0.63863E+06 -0.84470E+05  0.18378E+06
                                   -0.60637E+06 -0.84883E+04 -0.72412E+05
    1     0.16557E+01  0.40987E+00  0.60498E+06  0.12427E+06 -0.32452E+06
                                    0.89756E+06  0.14887E+05 -0.50635E+05
    2     0.21371E+01 -0.51418E+00 -0.40849E+06 -0.68120E+05  0.21736E+06
                                   -0.45856E+06  0.51521E+05 -0.60923E+05
    2     0.24458E+01 -0.28467E-01  0.35884E+06  0.14040E+06 -0.32857E+06
                                    0.67766E+06 -0.57382E+05 -0.38535E+05
    2     0.30184E+01 -0.11932E+01 -0.22653E+06 -0.11871E+06  0.15941E+06
                                   -0.31661E+06 -0.31656E+03 -0.34717E+05
    2     0.34012E+01 -0.76206E+00  0.18549E+06  0.21997E+06 -0.21352E+06
                                    0.44865E+06  0.63985E+04 -0.42775E+05
    3     0.36065E+01 -0.17757E+01 -0.15552E+06 -0.10613E+06  0.10787E+06
                                   -0.22764E+06 -0.20652E+05 -0.28781E+05
    3     0.40215E+01 -0.13757E+01  0.11407E+06  0.19224E+06 -0.15079E+06
                                    0.32430E+06  0.82217E+04 -0.34143E+05
    3     0.43598E+01 -0.26270E+01 -0.73242E+05 -0.57172E+05  0.74159E+05
                                   -0.13286E+06  0.78068E+04 -0.21311E+05
    3     0.48034E+01 -0.22577E+01  0.56819E+05  0.13845E+06 -0.89012E+05
                                    0.20007E+06  0.54352E+04 -0.24017E+05
    4     0.48800E+01 -0.32842E+01 -0.54096E+05 -0.28811E+05  0.46114E+05
                                   -0.81482E+05  0.78746E+03 -0.23475E+05
    4     0.53350E+01 -0.29297E+01  0.31649E+05  0.88114E+05 -0.64150E+05
                                    0.13247E+06 -0.78272E+04 -0.11552E+05
    4     0.55711E+01 -0.42022E+01 -0.20732E+05 -0.94888E+04  0.19595E+05
                                   -0.31899E+05  0.20650E+04 -0.11148E+05
    4     0.60356E+01 -0.38595E+01  0.10557E+05  0.52267E+05 -0.27204E+05
                                    0.64426E+05 -0.41605E+03 -0.11889E+05
    5     0.60668E+01 -0.48853E+01 -0.12790E+05  0.34909E+04  0.83039E+04
                                   -0.99458E+04  0.76029E+03 -0.10309E+05
    5     0.65339E+01 -0.45461E+01  0.60831E+04  0.24227E+05 -0.13205E+05
                                    0.30710E+05 -0.13858E+03 -0.45362E+04
    5     0.67424E+01 -0.58212E+01 -0.24789E+04  0.45045E+04  0.84772E+03
                                    0.13167E+04  0.71956E+03 -0.35816E+04
    5     0.72107E+01 -0.54838E+01 -0.55591E+03  0.22840E+04 -0.30447E+04
                                    0.42076E+04 -0.24702E+04 -0.37831E+03
  _____________________________________________________________________________


     Iteration No.  1     Error (root-mean-square value)=  0.3641E-01

     Iteration No.  2     Error (root-mean-square value)=  0.3703E-03

     S O L U T I O N :


     LOAD, FS................................= -0.1700E+02
  __________________________________________________

     Node    x-coord.      y-coord.     U      V  
  __________________________________________________

       1   0.00000E+00   0.00000E+00   0.00000E+00   0.00000E+00
       2   0.85760E+00  -0.14392E+00  -0.14240E+00  -0.14392E+00
       3   0.16734E+01  -0.51358E+00  -0.32663E+00  -0.51358E+00
       4   0.24293E+01  -0.10417E+01  -0.57069E+00  -0.10417E+01
       5   0.31213E+01  -0.16852E+01  -0.87870E+00  -0.16852E+01
       6   0.37609E+01  -0.24085E+01  -0.12391E+01  -0.24085E+01
       7   0.43636E+01  -0.31782E+01  -0.16364E+01  -0.31782E+01
       8   0.49403E+01  -0.39791E+01  -0.20597E+01  -0.39791E+01
       9   0.55044E+01  -0.47971E+01  -0.24956E+01  -0.47971E+01
      10   0.60628E+01  -0.56245E+01  -0.29372E+01  -0.56245E+01
      11   0.66215E+01  -0.64539E+01  -0.33785E+01  -0.64539E+01
      12   0.00000E+00   0.50000E+00   0.00000E+00   0.00000E+00
      13   0.19216E+01  -0.69002E-01  -0.78425E-01  -0.56900E+00
      14   0.34803E+01  -0.13359E+01  -0.51967E+00  -0.18359E+01
      15   0.47634E+01  -0.28769E+01  -0.12366E+01  -0.33769E+01
      16   0.59171E+01  -0.45153E+01  -0.20829E+01  -0.50153E+01
      17   0.70356E+01  -0.61746E+01  -0.29644E+01  -0.66746E+01
      18   0.00000E+00   0.10000E+01   0.00000E+00   0.00000E+00
      19   0.11350E+01   0.80821E+00   0.13504E+00  -0.19179E+00
      20   0.21616E+01   0.35697E+00   0.16163E+00  -0.64303E+00
      21   0.30569E+01  -0.26595E+00   0.56877E-01  -0.12660E+01
      22   0.38339E+01  -0.98882E+00  -0.16606E+00  -0.19888E+01
      23   0.45282E+01  -0.17675E+01  -0.47183E+00  -0.27675E+01
      24   0.51611E+01  -0.25783E+01  -0.83889E+00  -0.35783E+01
      25   0.57572E+01  -0.34027E+01  -0.12428E+01  -0.44027E+01
      26   0.63293E+01  -0.42339E+01  -0.16707E+01  -0.52339E+01
      27   0.68920E+01  -0.50651E+01  -0.21080E+01  -0.60651E+01
      28   0.74502E+01  -0.58960E+01  -0.25498E+01  -0.68960E+01
  __________________________________________________

  _____________________________________________________________________________

            x-coord.     y-coord.     SigmaXX     SigmaYY     SigmaXY
                                        SXX         SYY          SXY
  _____________________________________________________________________________

    1     0.39464E+00  0.17595E+00 -0.10297E+07 -0.34133E+06  0.18009E+05
                                   -0.88646E+06 -0.30677E+06 -0.64380E+05
    1     0.46703E+00  0.74399E+00  0.10163E+07  0.19588E+06 -0.20385E+06
                                    0.12856E+07  0.23166E+06 -0.10094E+06
    1     0.14219E+01 -0.13278E+00 -0.65433E+06 -0.93926E+05  0.19787E+06
                                   -0.62379E+06 -0.94461E+04 -0.76427E+05
    1     0.16571E+01  0.39211E+00  0.61622E+06  0.14085E+06 -0.34635E+06
                                    0.93898E+06  0.17158E+05 -0.53314E+05
    2     0.21202E+01 -0.54254E+00 -0.40999E+06 -0.78890E+05  0.22948E+06
                                   -0.46859E+06  0.52703E+05 -0.64207E+05
    2     0.24399E+01 -0.64166E-01  0.35491E+06  0.15994E+06 -0.34533E+06
                                    0.70434E+06 -0.59258E+05 -0.39739E+05
    2     0.29830E+01 -0.12434E+01 -0.22186E+06 -0.12939E+06  0.16486E+06
                                   -0.32168E+06 -0.28412E+03 -0.35762E+05
    2     0.33775E+01 -0.82307E+00  0.17870E+06  0.23940E+06 -0.21865E+06
                                    0.46362E+06  0.72771E+04 -0.44552E+05
    3     0.35538E+01 -0.18427E+01 -0.15187E+06 -0.11358E+06  0.10999E+06
                                   -0.23008E+06 -0.21735E+05 -0.29708E+05
    3     0.39803E+01 -0.14551E+01  0.10809E+06  0.20659E+06 -0.15267E+06
                                    0.33418E+06  0.83009E+04 -0.35119E+05
    3     0.42808E+01 -0.27163E+01 -0.68916E+05 -0.61461E+05  0.75065E+05
                                   -0.13326E+06  0.83137E+04 -0.21727E+05
    3     0.47356E+01 -0.23609E+01  0.53059E+05  0.14791E+06 -0.88600E+05
                                    0.20585E+06  0.59321E+04 -0.24613E+05
    4     0.47800E+01 -0.33895E+01 -0.51967E+05 -0.30871E+05  0.46831E+05
                                   -0.81196E+05  0.58392E+03 -0.24267E+05
    4     0.52460E+01 -0.30496E+01  0.28829E+05  0.94262E+05 -0.64246E+05
                                    0.13640E+06 -0.81384E+04 -0.11406E+05
    4     0.54417E+01 -0.43290E+01 -0.19386E+05 -0.10116E+05  0.19706E+05
                                   -0.31254E+05  0.21310E+04 -0.11331E+05
    4     0.59168E+01 -0.40014E+01  0.93701E+04  0.55532E+05 -0.26708E+05
                                    0.66542E+05 -0.37870E+03 -0.12069E+05
    5     0.59153E+01 -0.50278E+01 -0.12364E+05  0.36785E+04  0.86763E+04
                                   -0.93560E+04  0.78753E+03 -0.10659E+05
    5     0.63930E+01 -0.47037E+01  0.57649E+04  0.25749E+05 -0.13179E+05
                                    0.31901E+05 -0.10805E+03 -0.44064E+04
    5     0.65605E+01 -0.59849E+01 -0.25441E+04  0.47317E+04  0.10082E+04
                                    0.15333E+04  0.66612E+03 -0.37510E+04
    5     0.70395E+01 -0.56626E+01 -0.63706E+03  0.25141E+04 -0.31558E+04
                                    0.44617E+04 -0.25745E+04 -0.26515E+03
  _____________________________________________________________________________


     Iteration No.  1     Error (root-mean-square value)=  0.3323E-01

     Iteration No.  2     Error (root-mean-square value)=  0.3036E-03

     S O L U T I O N :


     LOAD, FS................................= -0.1800E+02
  __________________________________________________

     Node    x-coord.      y-coord.     U      V  
  __________________________________________________

       1   0.00000E+00   0.00000E+00   0.00000E+00   0.00000E+00
       2   0.85183E+00  -0.14927E+00  -0.14817E+00  -0.14927E+00
       3   0.16582E+01  -0.53144E+00  -0.34181E+00  -0.53144E+00
       4   0.24004E+01  -0.10755E+01  -0.59957E+00  -0.10755E+01
       5   0.30747E+01  -0.17361E+01  -0.92532E+00  -0.17361E+01
       6   0.36934E+01  -0.24768E+01  -0.13066E+01  -0.24768E+01
       7   0.42735E+01  -0.32635E+01  -0.17265E+01  -0.32635E+01
       8   0.48262E+01  -0.40810E+01  -0.21738E+01  -0.40810E+01
       9   0.53657E+01  -0.49155E+01  -0.26343E+01  -0.49155E+01
      10   0.58991E+01  -0.57593E+01  -0.31009E+01  -0.57593E+01
      11   0.64327E+01  -0.66050E+01  -0.35673E+01  -0.66050E+01
      12   0.00000E+00   0.50000E+00   0.00000E+00   0.00000E+00
      13   0.19151E+01  -0.91632E-01  -0.84880E-01  -0.59163E+00
      14   0.34430E+01  -0.13967E+01  -0.55700E+00  -0.18967E+01
      15   0.46819E+01  -0.29741E+01  -0.13181E+01  -0.34741E+01
      16   0.57866E+01  -0.46462E+01  -0.22134E+01  -0.51462E+01
      17   0.68550E+01  -0.63382E+01  -0.31450E+01  -0.68382E+01
      18   0.00000E+00   0.10000E+01   0.00000E+00   0.00000E+00
      19   0.11401E+01   0.79900E+00   0.14011E+00  -0.20100E+00
      20   0.21633E+01   0.32915E+00   0.16333E+00  -0.67085E+00
      21   0.30467E+01  -0.31537E+00   0.46665E-01  -0.13154E+01
      22   0.38057E+01  -0.10594E+01  -0.19431E+00  -0.20594E+01
      23   0.44786E+01  -0.18579E+01  -0.52138E+00  -0.28579E+01
      24   0.50881E+01  -0.26872E+01  -0.91190E+00  -0.36872E+01
      25   0.56599E+01  -0.35292E+01  -0.13401E+01  -0.45292E+01
      26   0.62070E+01  -0.43772E+01  -0.17930E+01  -0.53772E+01
      27   0.67447E+01  -0.52250E+01  -0.22553E+01  -0.62250E+01
      28   0.72777E+01  -0.60723E+01  -0.27223E+01  -0.70723E+01
  __________________________________________________

  _____________________________________________________________________________

            x-coord.     y-coord.     SigmaXX     SigmaYY     SigmaXY
                                        SXX         SYY          SXY
  _____________________________________________________________________________

    1     0.39378E+00  0.17430E+00 -0.10686E+07 -0.35890E+06  0.20353E+05
                                   -0.91545E+06 -0.32196E+06 -0.68007E+05
    1     0.46915E+00  0.74156E+00  0.10532E+07  0.20253E+06 -0.21864E+06
                                    0.13482E+07  0.24097E+06 -0.10710E+06
    1     0.14144E+01 -0.14588E+00 -0.66824E+06 -0.10344E+06  0.21147E+06
                                   -0.63981E+06 -0.10385E+05 -0.80344E+05
    1     0.16582E+01  0.37492E+00  0.62549E+06  0.15797E+06 -0.36739E+06
                                    0.97878E+06  0.19533E+05 -0.55984E+05
    2     0.21037E+01 -0.56956E+00 -0.41019E+06 -0.89524E+05  0.24059E+06
                                   -0.47737E+06  0.53756E+05 -0.67422E+05
    2     0.24337E+01 -0.98423E-01  0.34963E+06  0.17961E+06 -0.36074E+06
                                    0.72942E+06 -0.61039E+05 -0.40848E+05
    2     0.29485E+01 -0.12908E+01 -0.21657E+06 -0.13951E+06  0.16931E+06
                                   -0.32577E+06 -0.21488E+03 -0.36712E+05
    2     0.33538E+01 -0.88094E+00  0.17155E+06  0.25822E+06 -0.22253E+06
                                    0.47739E+06  0.81749E+04 -0.46241E+05
    3     0.35025E+01 -0.19054E+01 -0.14800E+06 -0.12038E+06  0.11138E+06
                                   -0.23176E+06 -0.22795E+05 -0.30577E+05
    3     0.39395E+01 -0.15299E+01  0.10206E+06  0.22020E+06 -0.15368E+06
                                    0.34319E+06  0.83635E+04 -0.35981E+05
    3     0.42042E+01 -0.27994E+01 -0.64558E+05 -0.65263E+05  0.75454E+05
                                   -0.13317E+06  0.88076E+04 -0.22080E+05
    3     0.46691E+01 -0.24573E+01  0.49432E+05  0.15674E+06 -0.87688E+05
                                    0.21108E+06  0.64233E+04 -0.25137E+05
    4     0.46835E+01 -0.34869E+01 -0.49821E+05 -0.32608E+05  0.47254E+05
                                   -0.80584E+05  0.37918E+03 -0.24998E+05
    4     0.51592E+01 -0.31609E+01  0.26101E+05  0.10001E+06 -0.64029E+05
                                    0.13998E+06 -0.84336E+04 -0.11212E+05
    4     0.53170E+01 -0.44458E+01 -0.18059E+05 -0.10574E+05  0.19671E+05
                                   -0.30456E+05  0.21915E+04 -0.11482E+05
    4     0.58017E+01 -0.41325E+01  0.82700E+04  0.58564E+05 -0.26089E+05
                                    0.68504E+05 -0.33865E+03 -0.12208E+05
    5     0.57695E+01 -0.51584E+01 -0.11920E+05  0.39125E+04  0.89934E+04
                                   -0.87013E+04  0.81284E+03 -0.10984E+05
    5     0.62567E+01 -0.48488E+01  0.54749E+04  0.27184E+05 -0.13114E+05
                                    0.33029E+05 -0.73040E+02 -0.42539E+04
    5     0.63858E+01 -0.61344E+01 -0.26035E+04  0.49542E+04  0.11682E+04
                                    0.17551E+04  0.60857E+03 -0.39146E+04
    5     0.68742E+01 -0.58267E+01 -0.71573E+03  0.27431E+04 -0.32651E+04
                                    0.47122E+04 -0.26736E+04 -0.14527E+03
  _____________________________________________________________________________


     Iteration No.  1     Error (root-mean-square value)=  0.3045E-01

     Iteration No.  2     Error (root-mean-square value)=  0.2499E-03

     S O L U T I O N :


     LOAD, FS................................= -0.1900E+02
  __________________________________________________

     Node    x-coord.      y-coord.     U      V  
  __________________________________________________

       1   0.00000E+00   0.00000E+00   0.00000E+00   0.00000E+00
       2   0.84627E+00  -0.15443E+00  -0.15373E+00  -0.15443E+00
       3   0.16435E+01  -0.54846E+00  -0.35654E+00  -0.54846E+00
       4   0.23724E+01  -0.11075E+01  -0.62761E+00  -0.11075E+01
       5   0.30295E+01  -0.17839E+01  -0.97049E+00  -0.17839E+01
       6   0.36282E+01  -0.25405E+01  -0.13718E+01  -0.25405E+01
       7   0.41867E+01  -0.33426E+01  -0.18133E+01  -0.33426E+01
       8   0.47165E+01  -0.41751E+01  -0.22835E+01  -0.41751E+01
       9   0.52326E+01  -0.50243E+01  -0.27674E+01  -0.50243E+01
      10   0.57422E+01  -0.58827E+01  -0.32578E+01  -0.58827E+01
      11   0.62520E+01  -0.67431E+01  -0.37480E+01  -0.67431E+01
      12   0.00000E+00   0.50000E+00   0.00000E+00   0.00000E+00
      13   0.19087E+01  -0.11340E+00  -0.91341E-01  -0.61340E+00
      14   0.34063E+01  -0.14541E+01  -0.59367E+00  -0.19541E+01
      15   0.46028E+01  -0.30645E+01  -0.13972E+01  -0.35645E+01
      16   0.56608E+01  -0.47668E+01  -0.23392E+01  -0.52668E+01
      17   0.66815E+01  -0.64882E+01  -0.33185E+01  -0.69882E+01
      18   0.00000E+00   0.10000E+01   0.00000E+00   0.00000E+00
      19   0.11450E+01   0.79001E+00   0.14495E+00  -0.20999E+00
      20   0.21646E+01   0.30224E+00   0.16458E+00  -0.69776E+00
      21   0.30360E+01  -0.36263E+00   0.36016E-01  -0.13626E+01
      22   0.37774E+01  -0.11263E+01  -0.22264E+00  -0.21263E+01
      23   0.44297E+01  -0.19429E+01  -0.57032E+00  -0.29429E+01
      24   0.50166E+01  -0.27890E+01  -0.98338E+00  -0.37890E+01
      25   0.55651E+01  -0.36466E+01  -0.14349E+01  -0.46466E+01
      26   0.60885E+01  -0.45097E+01  -0.19115E+01  -0.55097E+01
      27   0.66024E+01  -0.53723E+01  -0.23976E+01  -0.63723E+01
      28   0.71115E+01  -0.62342E+01  -0.28885E+01  -0.72342E+01
  __________________________________________________

  _____________________________________________________________________________

            x-coord.     y-coord.     SigmaXX     SigmaYY     SigmaXY
                                        SXX         SYY          SXY
  _____________________________________________________________________________

    1     0.39296E+00  0.17268E+00 -0.11059E+07 -0.37607E+06  0.22573E+05
                                   -0.94292E+06 -0.33682E+06 -0.71660E+05
    1     0.47122E+00  0.73916E+00  0.10884E+07  0.20894E+06 -0.23340E+06
                                    0.14095E+07  0.25001E+06 -0.11322E+06
    1     0.14072E+01 -0.15846E+00 -0.68052E+06 -0.11296E+06  0.22458E+06
                                   -0.65454E+06 -0.11299E+05 -0.84163E+05
    1     0.16591E+01  0.35826E+00  0.63301E+06  0.17558E+06 -0.38761E+06
                                    0.10170E+07  0.22001E+05 -0.58647E+05
    2     0.20875E+01 -0.59534E+00 -0.40929E+06 -0.99942E+05  0.25074E+06
                                   -0.48501E+06  0.54692E+05 -0.70570E+05
    2     0.24273E+01 -0.13133E+00  0.34323E+06  0.19927E+06 -0.37483E+06
                                    0.75301E+06 -0.62738E+05 -0.41866E+05
    2     0.29147E+01 -0.13355E+01 -0.21079E+06 -0.14903E+06  0.17284E+06
                                   -0.32897E+06 -0.10793E+03 -0.37573E+05
    2     0.33301E+01 -0.93590E+00  0.16419E+06  0.27634E+06 -0.22527E+06
                                    0.49007E+06  0.90877E+04 -0.47845E+05
    3     0.34526E+01 -0.19643E+01 -0.14401E+06 -0.12650E+06  0.11214E+06
                                   -0.23275E+06 -0.23835E+05 -0.31394E+05
    3     0.38992E+01 -0.16004E+01  0.96081E+05  0.23304E+06 -0.15394E+06
                                    0.35140E+06  0.84121E+04 -0.36735E+05
    3     0.41300E+01 -0.28767E+01 -0.60234E+05 -0.68571E+05  0.75398E+05
                                   -0.13265E+06  0.92886E+04 -0.22376E+05
    3     0.46040E+01 -0.25475E+01  0.45980E+05  0.16494E+06 -0.86365E+05
                                    0.21583E+06  0.69078E+04 -0.25595E+05
    4     0.45903E+01 -0.35773E+01 -0.47696E+05 -0.34022E+05  0.47429E+05
                                   -0.79683E+05  0.17502E+03 -0.25673E+05
    4     0.50748E+01 -0.32646E+01  0.23489E+05  0.10536E+06 -0.63558E+05
                                    0.14325E+06 -0.87147E+04 -0.10977E+05
    4     0.51970E+01 -0.45534E+01 -0.16770E+05 -0.10864E+05  0.19514E+05
                                   -0.29525E+05  0.22470E+04 -0.11604E+05
    4     0.56901E+01 -0.42537E+01  0.72606E+04  0.61374E+05 -0.25377E+05
                                    0.70328E+05 -0.29642E+03 -0.12310E+05
    5     0.56294E+01 -0.52784E+01 -0.11469E+05  0.41941E+04  0.92622E+04
                                   -0.79900E+04  0.83618E+03 -0.11287E+05
    5     0.61250E+01 -0.49825E+01  0.52142E+04  0.28537E+05 -0.13020E+05
                                    0.34099E+05 -0.33982E+02 -0.40815E+04
    5     0.62183E+01 -0.62714E+01 -0.26582E+04  0.51726E+04  0.13273E+04
                                    0.19811E+04  0.54743E+03 -0.40729E+04
    5     0.67150E+01 -0.59774E+01 -0.79242E+03  0.29711E+04 -0.33732E+04
                                    0.49591E+04 -0.27681E+04 -0.19590E+02
  _____________________________________________________________________________


     Iteration No.  1     Error (root-mean-square value)=  0.2801E-01

     Iteration No.  2     Error (root-mean-square value)=  0.2082E-03

     S O L U T I O N :


     LOAD, FS................................= -0.2000E+02
  __________________________________________________

     Node    x-coord.      y-coord.     U      V  
  __________________________________________________

       1   0.00000E+00   0.00000E+00   0.00000E+00   0.00000E+00
       2   0.84090E+00  -0.15940E+00  -0.15910E+00  -0.15940E+00
       3   0.16292E+01  -0.56471E+00  -0.37083E+00  -0.56471E+00
       4   0.23452E+01  -0.11378E+01  -0.65484E+00  -0.11378E+01
       5   0.29858E+01  -0.18288E+01  -0.10142E+01  -0.18288E+01
       6   0.35652E+01  -0.26001E+01  -0.14348E+01  -0.26001E+01
       7   0.41030E+01  -0.34161E+01  -0.18970E+01  -0.34161E+01
       8   0.46111E+01  -0.42622E+01  -0.23889E+01  -0.42622E+01
       9   0.51049E+01  -0.51245E+01  -0.28951E+01  -0.51245E+01
      10   0.55919E+01  -0.59961E+01  -0.34081E+01  -0.59961E+01
      11   0.60791E+01  -0.68695E+01  -0.39209E+01  -0.68695E+01
      12   0.00000E+00   0.50000E+00   0.00000E+00   0.00000E+00
      13   0.19022E+01  -0.13437E+00  -0.97795E-01  -0.63437E+00
      14   0.33704E+01  -0.15084E+01  -0.62962E+00  -0.20084E+01
      15   0.45260E+01  -0.31488E+01  -0.14740E+01  -0.36488E+01
      16   0.55396E+01  -0.48784E+01  -0.24604E+01  -0.53784E+01
      17   0.65151E+01  -0.66259E+01  -0.34849E+01  -0.71259E+01
      18   0.00000E+00   0.10000E+01   0.00000E+00   0.00000E+00
      19   0.11496E+01   0.78121E+00   0.14959E+00  -0.21879E+00
      20   0.21654E+01   0.27622E+00   0.16543E+00  -0.72378E+00
      21   0.30250E+01  -0.40787E+00   0.25010E-01  -0.14079E+01
      22   0.37491E+01  -0.11897E+01  -0.25093E+00  -0.21897E+01
      23   0.43815E+01  -0.20229E+01  -0.61852E+00  -0.30229E+01
      24   0.49468E+01  -0.28841E+01  -0.10532E+01  -0.38841E+01
      25   0.54731E+01  -0.37559E+01  -0.15269E+01  -0.47559E+01
      26   0.59739E+01  -0.46325E+01  -0.20261E+01  -0.56325E+01
      27   0.64651E+01  -0.55083E+01  -0.25349E+01  -0.65083E+01
      28   0.69515E+01  -0.63832E+01  -0.30485E+01  -0.73832E+01
  __________________________________________________

  _____________________________________________________________________________

            x-coord.     y-coord.     SigmaXX     SigmaYY     SigmaXY
                                        SXX         SYY          SXY
  _____________________________________________________________________________

    1     0.39218E+00  0.17108E+00 -0.11417E+07 -0.39284E+06  0.24661E+05
                                   -0.96899E+06 -0.35135E+06 -0.75340E+05
    1     0.47322E+00  0.73678E+00  0.11218E+07  0.21514E+06 -0.24812E+06
                                    0.14696E+07  0.25880E+06 -0.11929E+06
    1     0.14001E+01 -0.17056E+00 -0.69131E+06 -0.12245E+06  0.23718E+06
                                   -0.66810E+06 -0.12180E+05 -0.87886E+05
    1     0.16599E+01  0.34211E+00  0.63895E+06  0.19359E+06 -0.40700E+06
                                    0.10539E+07  0.24555E+05 -0.61304E+05
    2     0.20717E+01 -0.61997E+00 -0.40746E+06 -0.11008E+06  0.25996E+06
                                   -0.49162E+06  0.55523E+05 -0.73656E+05
    2     0.24206E+01 -0.16296E+00  0.33588E+06  0.21882E+06 -0.38766E+06
                                    0.77521E+06 -0.64367E+05 -0.42798E+05
    2     0.28819E+01 -0.13779E+01 -0.20467E+06 -0.15791E+06  0.17555E+06
                                   -0.33136E+06  0.37081E+02 -0.38351E+05
    2     0.33064E+01 -0.98815E+00  0.15673E+06  0.29372E+06 -0.22699E+06
                                    0.50174E+06  0.10012E+05 -0.49371E+05
    3     0.34042E+01 -0.20196E+01 -0.14000E+06 -0.13194E+06  0.11234E+06
                                   -0.23313E+06 -0.24854E+05 -0.32163E+05
    3     0.38596E+01 -0.16669E+01  0.90226E+05  0.24512E+06 -0.15354E+06
                                    0.35888E+06  0.84487E+04 -0.37389E+05
    3     0.40583E+01 -0.29489E+01 -0.55993E+05 -0.71389E+05  0.74965E+05
                                   -0.13173E+06  0.97568E+04 -0.22620E+05
    3     0.45406E+01 -0.26319E+01  0.42727E+05  0.17254E+06 -0.84710E+05
                                    0.22014E+06  0.73850E+04 -0.25995E+05
    4     0.45003E+01 -0.36612E+01 -0.45618E+05 -0.35119E+05  0.47397E+05
                                   -0.78527E+05 -0.27175E+02 -0.26297E+05
    4     0.49928E+01 -0.33611E+01  0.21009E+05  0.11034E+06 -0.62882E+05
                                    0.14624E+06 -0.89833E+04 -0.10706E+05
    4     0.50815E+01 -0.46528E+01 -0.15531E+05 -0.10991E+05  0.19257E+05
                                   -0.28478E+05  0.22980E+04 -0.11701E+05
    4     0.55823E+01 -0.43661E+01  0.63425E+04  0.63974E+05 -0.24597E+05
                                    0.72028E+05 -0.25241E+03 -0.12380E+05
    5     0.54949E+01 -0.53890E+01 -0.11019E+05  0.45236E+04  0.94897E+04
                                   -0.72294E+04  0.85757E+03 -0.11570E+05
    5     0.59981E+01 -0.51061E+01  0.49824E+04  0.29813E+05 -0.12905E+05
                                    0.35117E+05  0.87497E+01 -0.38917E+04
    5     0.60576E+01 -0.63970E+01 -0.27092E+04  0.53874E+04  0.14854E+04
                                    0.22104E+04  0.48317E+03 -0.42262E+04
    5     0.65619E+01 -0.61161E+01 -0.86755E+03  0.31980E+04 -0.34808E+04
                                    0.52024E+04 -0.28585E+04  0.11108E+03
  _____________________________________________________________________________


     Iteration No.  1     Error (root-mean-square value)=  0.2584E-01

     Iteration No.  2     Error (root-mean-square value)=  0.1778E-03

     S O L U T I O N :


     LOAD, FS................................= -0.2100E+02
  __________________________________________________

     Node    x-coord.      y-coord.     U      V  
  __________________________________________________

       1   0.00000E+00   0.00000E+00   0.00000E+00   0.00000E+00
       2   0.83571E+00  -0.16420E+00  -0.16429E+00  -0.16420E+00
       3   0.16153E+01  -0.58025E+00  -0.38471E+00  -0.58025E+00
       4   0.23187E+01  -0.11666E+01  -0.68130E+00  -0.11666E+01
       5   0.29434E+01  -0.18712E+01  -0.10566E+01  -0.18712E+01
       6   0.35043E+01  -0.26558E+01  -0.14957E+01  -0.26558E+01
       7   0.40224E+01  -0.34846E+01  -0.19776E+01  -0.34846E+01
       8   0.45097E+01  -0.43428E+01  -0.24903E+01  -0.43428E+01
       9   0.49824E+01  -0.52170E+01  -0.30176E+01  -0.52170E+01
      10   0.54480E+01  -0.61003E+01  -0.35520E+01  -0.61003E+01
      11   0.59137E+01  -0.69854E+01  -0.40863E+01  -0.69854E+01
      12   0.00000E+00   0.50000E+00   0.00000E+00   0.00000E+00
      13   0.18958E+01  -0.15459E+00  -0.10424E+00  -0.65459E+00
      14   0.33352E+01  -0.15598E+01  -0.66485E+00  -0.20598E+01
      15   0.44517E+01  -0.32276E+01  -0.15483E+01  -0.37276E+01
      16   0.54230E+01  -0.49816E+01  -0.25770E+01  -0.54816E+01
      17   0.63555E+01  -0.67525E+01  -0.36445E+01  -0.72525E+01
      18   0.00000E+00   0.10000E+01   0.00000E+00   0.00000E+00
      19   0.11540E+01   0.77261E+00   0.15404E+00  -0.22739E+00
      20   0.21659E+01   0.25101E+00   0.16590E+00  -0.74899E+00
      21   0.30137E+01  -0.45120E+00   0.13717E-01  -0.14512E+01
      22   0.37209E+01  -0.12499E+01  -0.27911E+00  -0.22499E+01
      23   0.43341E+01  -0.20982E+01  -0.66591E+00  -0.30982E+01
      24   0.48787E+01  -0.29732E+01  -0.11213E+01  -0.39732E+01
      25   0.53838E+01  -0.38577E+01  -0.16162E+01  -0.48577E+01
      26   0.58631E+01  -0.47464E+01  -0.21369E+01  -0.57464E+01
      27   0.63329E+01  -0.56340E+01  -0.26671E+01  -0.66340E+01
      28   0.67977E+01  -0.65206E+01  -0.32023E+01  -0.75206E+01
  __________________________________________________

  _____________________________________________________________________________

            x-coord.     y-coord.     SigmaXX     SigmaYY     SigmaXY
                                        SXX         SYY          SXY
  _____________________________________________________________________________

    1     0.39144E+00  0.16951E+00 -0.11760E+07 -0.40922E+06  0.26613E+05
                                   -0.99376E+06 -0.36558E+06 -0.79048E+05
    1     0.47518E+00  0.73443E+00  0.11537E+07  0.22116E+06 -0.26278E+06
                                    0.15284E+07  0.26738E+06 -0.12531E+06
    1     0.13932E+01 -0.18222E+00 -0.70075E+06 -0.13189E+06  0.24928E+06
                                   -0.68058E+06 -0.13025E+05 -0.91513E+05
    1     0.16605E+01  0.32645E+00  0.64345E+06  0.21194E+06 -0.42556E+06
                                    0.10893E+07  0.27185E+05 -0.63957E+05
    2     0.20562E+01 -0.64353E+00 -0.40483E+06 -0.11989E+06  0.26832E+06
                                   -0.49727E+06  0.56261E+05 -0.76681E+05
    2     0.24137E+01 -0.19340E+00  0.32777E+06  0.23819E+06 -0.39930E+06
                                    0.79609E+06 -0.65937E+05 -0.43649E+05
    2     0.28498E+01 -0.14180E+01 -0.19830E+06 -0.16613E+06  0.17751E+06
                                   -0.33303E+06  0.22002E+03 -0.39050E+05
    2     0.32829E+01 -0.10379E+01  0.14929E+06  0.31034E+06 -0.22781E+06
                                    0.51247E+06  0.10945E+05 -0.50823E+05
    3     0.33571E+01 -0.20717E+01 -0.13601E+06 -0.13671E+06  0.11206E+06
                                   -0.23295E+06 -0.25857E+05 -0.32890E+05
    3     0.38205E+01 -0.17298E+01  0.84548E+05  0.25645E+06 -0.15260E+06
                                    0.36570E+06  0.84750E+04 -0.37949E+05
    3     0.39890E+01 -0.30164E+01 -0.51870E+05 -0.73727E+05  0.74215E+05
                                   -0.13046E+06  0.10213E+05 -0.22817E+05
    3     0.44787E+01 -0.27111E+01  0.39688E+05  0.17955E+06 -0.82791E+05
                                    0.22405E+06  0.78544E+04 -0.26339E+05
    4     0.44136E+01 -0.37392E+01 -0.43607E+05 -0.35911E+05  0.47194E+05
                                   -0.77145E+05 -0.22632E+03 -0.26875E+05
    4     0.49132E+01 -0.34512E+01  0.18666E+05  0.11495E+06 -0.62047E+05
                                    0.14898E+06 -0.92408E+04 -0.10403E+05
    4     0.49705E+01 -0.47449E+01 -0.14349E+05 -0.10960E+05  0.18921E+05
                                   -0.27327E+05  0.23448E+04 -0.11776E+05
    4     0.54782E+01 -0.44705E+01  0.55133E+04  0.66377E+05 -0.23772E+05
                                    0.73616E+05 -0.20693E+03 -0.12420E+05
    5     0.53659E+01 -0.54910E+01 -0.10574E+05  0.49001E+04  0.96820E+04
                                   -0.64259E+04  0.87703E+03 -0.11835E+05
    5     0.58757E+01 -0.52205E+01  0.47787E+04  0.31018E+05 -0.12777E+05
                                    0.36088E+05  0.54811E+02 -0.36867E+04
    5     0.59038E+01 -0.65125E+01 -0.27572E+04  0.55992E+04  0.16424E+04
                                    0.24425E+04  0.41622E+03 -0.43751E+04
    5     0.64147E+01 -0.62440E+01 -0.94153E+03  0.34240E+04 -0.35881E+04
                                    0.54424E+04 -0.29453E+04  0.24605E+03
  _____________________________________________________________________________


     Iteration No.  1     Error (root-mean-square value)=  0.2392E-01

     Iteration No.  2     Error (root-mean-square value)=  0.1576E-03

     S O L U T I O N :


     LOAD, FS................................= -0.2200E+02
  __________________________________________________

     Node    x-coord.      y-coord.     U      V  
  __________________________________________________

       1   0.00000E+00   0.00000E+00   0.00000E+00   0.00000E+00
       2   0.83069E+00  -0.16884E+00  -0.16931E+00  -0.16884E+00
       3   0.16018E+01  -0.59512E+00  -0.39820E+00  -0.59512E+00
       4   0.22930E+01  -0.11940E+01  -0.70700E+00  -0.11940E+01
       5   0.29023E+01  -0.19112E+01  -0.10977E+01  -0.19112E+01
       6   0.34455E+01  -0.27082E+01  -0.15545E+01  -0.27082E+01
       7   0.39448E+01  -0.35485E+01  -0.20552E+01  -0.35485E+01
       8   0.44124E+01  -0.44177E+01  -0.25876E+01  -0.44177E+01
       9   0.48650E+01  -0.53026E+01  -0.31350E+01  -0.53026E+01
      10   0.53102E+01  -0.61964E+01  -0.36898E+01  -0.61964E+01
      11   0.57556E+01  -0.70919E+01  -0.42444E+01  -0.70919E+01
      12   0.00000E+00   0.50000E+00   0.00000E+00   0.00000E+00
      13   0.18893E+01  -0.17411E+00  -0.11065E+00  -0.67411E+00
      14   0.33007E+01  -0.16085E+01  -0.69932E+00  -0.21085E+01
      15   0.43798E+01  -0.33013E+01  -0.16202E+01  -0.38013E+01
      16   0.53108E+01  -0.50773E+01  -0.26892E+01  -0.55773E+01
      17   0.62025E+01  -0.68692E+01  -0.37975E+01  -0.73692E+01
      18   0.00000E+00   0.10000E+01   0.00000E+00   0.00000E+00
      19   0.11583E+01   0.76418E+00   0.15830E+00  -0.23582E+00
      20   0.21660E+01   0.22659E+00   0.16605E+00  -0.77341E+00
      21   0.30022E+01  -0.49276E+00   0.21944E-02  -0.14928E+01
      22   0.36929E+01  -0.13071E+01  -0.30709E+00  -0.23071E+01
      23   0.42876E+01  -0.21693E+01  -0.71241E+00  -0.31693E+01
      24   0.48124E+01  -0.30568E+01  -0.11876E+01  -0.40568E+01
      25   0.52973E+01  -0.39528E+01  -0.17027E+01  -0.49528E+01
      26   0.57562E+01  -0.48523E+01  -0.22438E+01  -0.58523E+01
      27   0.62056E+01  -0.57505E+01  -0.27944E+01  -0.67505E+01
      28   0.66500E+01  -0.66476E+01  -0.33500E+01  -0.76476E+01
  __________________________________________________

  _____________________________________________________________________________

            x-coord.     y-coord.     SigmaXX     SigmaYY     SigmaXY
                                        SXX         SYY          SXY
  _____________________________________________________________________________

    1     0.39073E+00  0.16797E+00 -0.12089E+07 -0.42522E+06  0.28424E+05
                                   -0.10173E+07 -0.37951E+06 -0.82783E+05
    1     0.47708E+00  0.73210E+00  0.11841E+07  0.22701E+06 -0.27737E+06
                                    0.15861E+07  0.27574E+06 -0.13129E+06
    1     0.13865E+01 -0.19347E+00 -0.70896E+06 -0.14123E+06  0.26088E+06
                                   -0.69208E+06 -0.13828E+05 -0.95046E+05
    1     0.16609E+01  0.31123E+00  0.64667E+06  0.23057E+06 -0.44329E+06
                                    0.11234E+07  0.29884E+05 -0.66607E+05
    2     0.20410E+01 -0.66610E+00 -0.40155E+06 -0.12933E+06  0.27586E+06
                                   -0.50207E+06  0.56915E+05 -0.79647E+05
    2     0.24067E+01 -0.22272E+00  0.31904E+06  0.25730E+06 -0.40981E+06
                                    0.81575E+06 -0.67457E+05 -0.44423E+05
    2     0.28186E+01 -0.14561E+01 -0.19177E+06 -0.17369E+06  0.17879E+06
                                   -0.33403E+06  0.44040E+03 -0.39676E+05
    2     0.32597E+01 -0.10853E+01  0.14193E+06  0.32618E+06 -0.22782E+06
                                    0.52234E+06  0.11885E+05 -0.52205E+05
    3     0.33114E+01 -0.21209E+01 -0.13210E+06 -0.14083E+06  0.11138E+06
                                   -0.23227E+06 -0.26843E+05 -0.33578E+05
    3     0.37822E+01 -0.17893E+01  0.79083E+05  0.26703E+06 -0.15120E+06
                                    0.37191E+06  0.84923E+04 -0.38422E+05
    3     0.39219E+01 -0.30796E+01 -0.47888E+05 -0.75603E+05  0.73202E+05
                                   -0.12889E+06  0.10657E+05 -0.22973E+05
    3     0.44184E+01 -0.27855E+01  0.36871E+05  0.18601E+06 -0.80669E+05
                                    0.22760E+06  0.83159E+04 -0.26635E+05
    4     0.43301E+01 -0.38120E+01 -0.41676E+05 -0.36410E+05  0.46852E+05
                                   -0.75562E+05 -0.42159E+03 -0.27410E+05
    4     0.48360E+01 -0.35355E+01  0.16465E+05  0.11921E+06 -0.61089E+05
                                    0.15150E+06 -0.94886E+04 -0.10073E+05
    4     0.48639E+01 -0.48303E+01 -0.13228E+05 -0.10780E+05  0.18522E+05
                                   -0.26086E+05  0.23880E+04 -0.11830E+05
    4     0.53777E+01 -0.45676E+01  0.47692E+04  0.68599E+05 -0.22918E+05
                                    0.75103E+05 -0.16022E+03 -0.12434E+05
    5     0.52421E+01 -0.55853E+01 -0.10140E+05  0.53223E+04  0.98450E+04
                                   -0.55849E+04  0.89462E+03 -0.12084E+05
    5     0.57580E+01 -0.53266E+01  0.46014E+04  0.32157E+05 -0.12642E+05
                                    0.37017E+05  0.10389E+03 -0.34684E+04
    5     0.57564E+01 -0.66189E+01 -0.28028E+04  0.58085E+04  0.17981E+04
                                    0.26768E+04  0.34694E+03 -0.45200E+04
    5     0.62734E+01 -0.63622E+01 -0.10147E+04  0.36490E+04 -0.36954E+04
                                    0.56791E+04 -0.30290E+04  0.38472E+03
  _____________________________________________________________________________


     Iteration No.  1     Error (root-mean-square value)=  0.2220E-01

     Iteration No.  2     Error (root-mean-square value)=  0.1465E-03

     S O L U T I O N :


     LOAD, FS................................= -0.2300E+02
  __________________________________________________

     Node    x-coord.      y-coord.     U      V  
  __________________________________________________

       1   0.00000E+00   0.00000E+00   0.00000E+00   0.00000E+00
       2   0.82583E+00  -0.17334E+00  -0.17417E+00  -0.17334E+00
       3   0.15887E+01  -0.60938E+00  -0.41132E+00  -0.60938E+00
       4   0.22680E+01  -0.12201E+01  -0.73199E+00  -0.12201E+01
       5   0.28625E+01  -0.19490E+01  -0.11375E+01  -0.19490E+01
       6   0.33887E+01  -0.27574E+01  -0.16113E+01  -0.27574E+01
       7   0.38700E+01  -0.36083E+01  -0.21300E+01  -0.36083E+01
       8   0.43189E+01  -0.44875E+01  -0.26811E+01  -0.44875E+01
       9   0.47524E+01  -0.53819E+01  -0.32476E+01  -0.53819E+01
      10   0.51783E+01  -0.62852E+01  -0.38217E+01  -0.62852E+01
      11   0.56044E+01  -0.71901E+01  -0.43956E+01  -0.71901E+01
      12   0.00000E+00   0.50000E+00   0.00000E+00   0.00000E+00
      13   0.18830E+01  -0.19296E+00  -0.11705E+00  -0.69296E+00
      14   0.32670E+01  -0.16548E+01  -0.73304E+00  -0.21548E+01
      15   0.43101E+01  -0.33704E+01  -0.16899E+01  -0.38704E+01
      16   0.52030E+01  -0.51663E+01  -0.27970E+01  -0.56663E+01
      17   0.60560E+01  -0.69770E+01  -0.39440E+01  -0.74770E+01
      18   0.00000E+00   0.10000E+01   0.00000E+00   0.00000E+00
      19   0.11624E+01   0.75593E+00   0.16240E+00  -0.24407E+00
      20   0.21659E+01   0.20290E+00   0.16589E+00  -0.79710E+00
      21   0.29905E+01  -0.53264E+00  -0.95074E-02  -0.15326E+01
      22   0.36652E+01  -0.13615E+01  -0.33483E+00  -0.23615E+01
      23   0.42420E+01  -0.22365E+01  -0.75798E+00  -0.32365E+01
      24   0.47478E+01  -0.31353E+01  -0.12522E+01  -0.41353E+01
      25   0.52136E+01  -0.40416E+01  -0.17864E+01  -0.50416E+01
      26   0.56530E+01  -0.49510E+01  -0.23470E+01  -0.59510E+01
      27   0.60831E+01  -0.58586E+01  -0.29169E+01  -0.68586E+01
      28   0.65081E+01  -0.67651E+01  -0.34919E+01  -0.77651E+01
  __________________________________________________

  _____________________________________________________________________________

            x-coord.     y-coord.     SigmaXX     SigmaYY     SigmaXY
                                        SXX         SYY          SXY
  _____________________________________________________________________________

    1     0.39005E+00  0.16644E+00 -0.12407E+07 -0.44083E+06  0.30092E+05
                                   -0.10398E+07 -0.39315E+06 -0.86544E+05
    1     0.47894E+00  0.72979E+00  0.12132E+07  0.23272E+06 -0.29189E+06
                                    0.16428E+07  0.28391E+06 -0.13721E+06
    1     0.13799E+01 -0.20434E+00 -0.71605E+06 -0.15046E+06  0.27199E+06
                                   -0.70267E+06 -0.14586E+05 -0.98488E+05
    1     0.16612E+01  0.29644E+00  0.64873E+06  0.24943E+06 -0.46021E+06
                                    0.11563E+07  0.32646E+05 -0.69254E+05
    2     0.20262E+01 -0.68775E+00 -0.39771E+06 -0.13838E+06  0.28262E+06
                                   -0.50608E+06  0.57492E+05 -0.82558E+05
    2     0.23995E+01 -0.25098E+00  0.30981E+06  0.27611E+06 -0.41927E+06
                                    0.83427E+06 -0.68934E+05 -0.45123E+05
    2     0.27882E+01 -0.14924E+01 -0.18515E+06 -0.18059E+06  0.17948E+06
                                   -0.33443E+06  0.69744E+03 -0.40233E+05
    2     0.32366E+01 -0.11305E+01  0.13473E+06  0.34125E+06 -0.22712E+06
                                    0.53142E+06  0.12828E+05 -0.53522E+05
    3     0.32670E+01 -0.21673E+01 -0.12831E+06 -0.14433E+06  0.11036E+06
                                   -0.23115E+06 -0.27815E+05 -0.34231E+05
    3     0.37446E+01 -0.18457E+01  0.73857E+05  0.27690E+06 -0.14942E+06
                                    0.37757E+06  0.85019E+04 -0.38814E+05
    3     0.38572E+01 -0.31389E+01 -0.44064E+05 -0.77038E+05  0.71974E+05
                                   -0.12704E+06  0.11089E+05 -0.23090E+05
    3     0.43598E+01 -0.28555E+01  0.34273E+05  0.19195E+06 -0.78394E+05
                                    0.23083E+06  0.87694E+04 -0.26886E+05
    4     0.42496E+01 -0.38801E+01 -0.39833E+05 -0.36633E+05  0.46400E+05
                                   -0.73801E+05 -0.61237E+03 -0.27907E+05
    4     0.47613E+01 -0.36145E+01  0.14403E+05  0.12316E+06 -0.60040E+05
                                    0.15382E+06 -0.97278E+04 -0.97183E+04
    4     0.47615E+01 -0.49097E+01 -0.12171E+05 -0.10459E+05  0.18075E+05
                                   -0.24765E+05  0.24278E+04 -0.11868E+05
    4     0.52808E+01 -0.46581E+01  0.41052E+04  0.70655E+05 -0.22049E+05
                                    0.76500E+05 -0.11249E+03 -0.12425E+05
    5     0.51233E+01 -0.56727E+01 -0.97184E+04  0.57881E+04  0.99836E+04
                                   -0.47113E+04  0.91042E+03 -0.12318E+05
    5     0.56447E+01 -0.54252E+01  0.44488E+04  0.33236E+05 -0.12505E+05
                                    0.37907E+05  0.15569E+03 -0.32384E+04
    5     0.56154E+01 -0.67172E+01 -0.28465E+04  0.60157E+04  0.19526E+04
                                    0.29130E+04  0.27566E+03 -0.46611E+04
    5     0.61378E+01 -0.64717E+01 -0.10874E+04  0.38733E+04 -0.38031E+04
                                    0.59128E+04 -0.31098E+04  0.52656E+03
  _____________________________________________________________________________


     Iteration No.  1     Error (root-mean-square value)=  0.2067E-01

     Iteration No.  2     Error (root-mean-square value)=  0.1422E-03

     S O L U T I O N :


     LOAD, FS................................= -0.2400E+02
  __________________________________________________

     Node    x-coord.      y-coord.     U      V  
  __________________________________________________

       1   0.00000E+00   0.00000E+00   0.00000E+00   0.00000E+00
       2   0.82111E+00  -0.17770E+00  -0.17889E+00  -0.17770E+00
       3   0.15759E+01  -0.62308E+00  -0.42408E+00  -0.62308E+00
       4   0.22437E+01  -0.12451E+01  -0.75629E+00  -0.12451E+01
       5   0.28239E+01  -0.19849E+01  -0.11761E+01  -0.19849E+01
       6   0.33339E+01  -0.28038E+01  -0.16661E+01  -0.28038E+01
       7   0.37980E+01  -0.36643E+01  -0.22020E+01  -0.36643E+01
       8   0.42291E+01  -0.45525E+01  -0.27709E+01  -0.45525E+01
       9   0.46445E+01  -0.54557E+01  -0.33555E+01  -0.54557E+01
      10   0.50521E+01  -0.63674E+01  -0.39479E+01  -0.63674E+01
      11   0.54598E+01  -0.72807E+01  -0.45402E+01  -0.72807E+01
      12   0.00000E+00   0.50000E+00   0.00000E+00   0.00000E+00
      13   0.18766E+01  -0.21120E+00  -0.12340E+00  -0.71120E+00
      14   0.32340E+01  -0.16987E+01  -0.76601E+00  -0.21987E+01
      15   0.42428E+01  -0.34354E+01  -0.17572E+01  -0.39354E+01
      16   0.50993E+01  -0.52492E+01  -0.29007E+01  -0.57492E+01
      17   0.59156E+01  -0.70768E+01  -0.40844E+01  -0.75768E+01
      18   0.00000E+00   0.10000E+01   0.00000E+00   0.00000E+00
      19   0.11663E+01   0.74784E+00   0.16634E+00  -0.25216E+00
      20   0.21655E+01   0.17991E+00   0.16545E+00  -0.82009E+00
      21   0.29787E+01  -0.57097E+00  -0.21345E-01  -0.15710E+01
      22   0.36377E+01  -0.14134E+01  -0.36227E+00  -0.24134E+01
      23   0.41974E+01  -0.23000E+01  -0.80259E+00  -0.33000E+01
      24   0.46851E+01  -0.32091E+01  -0.13149E+01  -0.42091E+01
      25   0.51326E+01  -0.41249E+01  -0.18674E+01  -0.51249E+01
      26   0.55536E+01  -0.50430E+01  -0.24464E+01  -0.60430E+01
      27   0.59653E+01  -0.59592E+01  -0.30347E+01  -0.69592E+01
      28   0.63719E+01  -0.68741E+01  -0.36281E+01  -0.78741E+01
  __________________________________________________

  _____________________________________________________________________________

            x-coord.     y-coord.     SigmaXX     SigmaYY     SigmaXY
                                        SXX         SYY          SXY
  _____________________________________________________________________________

    1     0.38940E+00  0.16493E+00 -0.12712E+07 -0.45608E+06  0.31618E+05
                                   -0.10612E+07 -0.40651E+06 -0.90333E+05
    1     0.48075E+00  0.72750E+00  0.12409E+07  0.23830E+06 -0.30632E+06
                                    0.16984E+07  0.29191E+06 -0.14307E+06
    1     0.13735E+01 -0.21484E+00 -0.72212E+06 -0.15955E+06  0.28262E+06
                                   -0.71242E+06 -0.15296E+05 -0.10184E+06
    1     0.16613E+01  0.28206E+00  0.64975E+06  0.26847E+06 -0.47632E+06
                                    0.11881E+07  0.35465E+05 -0.71899E+05
    2     0.20117E+01 -0.70855E+00 -0.39342E+06 -0.14701E+06  0.28867E+06
                                   -0.50936E+06  0.57999E+05 -0.85416E+05
    2     0.23922E+01 -0.27825E+00  0.30020E+06  0.29456E+06 -0.42774E+06
                                    0.85173E+06 -0.70376E+05 -0.45753E+05
    2     0.27585E+01 -0.15269E+01 -0.17850E+06 -0.18684E+06  0.17963E+06
                                   -0.33428E+06  0.99017E+03 -0.40727E+05
    2     0.32138E+01 -0.11737E+01  0.12772E+06  0.35555E+06 -0.22579E+06
                                    0.53978E+06  0.13775E+05 -0.54778E+05
    3     0.32240E+01 -0.22113E+01 -0.12465E+06 -0.14722E+06  0.10906E+06
                                   -0.22962E+06 -0.28773E+05 -0.34851E+05
    3     0.37078E+01 -0.18992E+01  0.68885E+05  0.28609E+06 -0.14732E+06
                                    0.38273E+06  0.85046E+04 -0.39130E+05
    3     0.37946E+01 -0.31947E+01 -0.40406E+05 -0.78054E+05  0.70573E+05
                                   -0.12495E+06  0.11510E+05 -0.23174E+05
    3     0.43028E+01 -0.29214E+01  0.31892E+05  0.19740E+06 -0.76009E+05
                                    0.23377E+06  0.92150E+04 -0.27096E+05
    4     0.41720E+01 -0.39437E+01 -0.38081E+05 -0.36596E+05  0.45862E+05
                                   -0.71883E+05 -0.79823E+03 -0.28368E+05
    4     0.46889E+01 -0.36885E+01  0.12476E+05  0.12681E+06 -0.58927E+05
                                    0.15595E+06 -0.99595E+04 -0.93432E+04
    4     0.46630E+01 -0.49836E+01 -0.11177E+05 -0.10008E+05  0.17592E+05
                                   -0.23375E+05  0.24648E+04 -0.11890E+05
    4     0.51873E+01 -0.47426E+01  0.35158E+04  0.72559E+05 -0.21177E+05
                                    0.77815E+05 -0.63859E+02 -0.12394E+05
    5     0.50095E+01 -0.57539E+01 -0.93118E+04  0.62955E+04  0.10102E+05
                                   -0.38092E+04  0.92451E+03 -0.12540E+05
    5     0.55357E+01 -0.55169E+01  0.43188E+04  0.34261E+05 -0.12369E+05
                                    0.38763E+05  0.20996E+03 -0.29982E+04
    5     0.54804E+01 -0.68082E+01 -0.28888E+04  0.62210E+04  0.21058E+04
                                    0.31505E+04  0.20268E+03 -0.47988E+04
    5     0.60076E+01 -0.65732E+01 -0.11598E+04  0.40969E+04 -0.39111E+04
                                    0.61436E+04 -0.31881E+04  0.67112E+03
  _____________________________________________________________________________


     Iteration No.  1     Error (root-mean-square value)=  0.1928E-01

     Iteration No.  2     Error (root-mean-square value)=  0.1427E-03

     S O L U T I O N :


     LOAD, FS................................= -0.2500E+02
  __________________________________________________

     Node    x-coord.      y-coord.     U      V  
  __________________________________________________

       1   0.00000E+00   0.00000E+00   0.00000E+00   0.00000E+00
       2   0.81654E+00  -0.18193E+00  -0.18346E+00  -0.18193E+00
       3   0.15635E+01  -0.63624E+00  -0.43650E+00  -0.63624E+00
       4   0.22201E+01  -0.12689E+01  -0.77993E+00  -0.12689E+01
       5   0.27865E+01  -0.20190E+01  -0.12135E+01  -0.20190E+01
       6   0.32808E+01  -0.28475E+01  -0.17192E+01  -0.28475E+01
       7   0.37287E+01  -0.37168E+01  -0.22713E+01  -0.37168E+01
       8   0.41427E+01  -0.46133E+01  -0.28573E+01  -0.46133E+01
       9   0.45410E+01  -0.55243E+01  -0.34590E+01  -0.55243E+01
      10   0.49312E+01  -0.64437E+01  -0.40688E+01  -0.64437E+01
      11   0.53216E+01  -0.73646E+01  -0.46784E+01  -0.73646E+01
      12   0.00000E+00   0.50000E+00   0.00000E+00   0.00000E+00
      13   0.18703E+01  -0.22885E+00  -0.12973E+00  -0.72885E+00
      14   0.32018E+01  -0.17406E+01  -0.79824E+00  -0.22406E+01
      15   0.41776E+01  -0.34965E+01  -0.18224E+01  -0.39965E+01
      16   0.49996E+01  -0.53265E+01  -0.30004E+01  -0.58265E+01
      17   0.57811E+01  -0.71694E+01  -0.42189E+01  -0.76694E+01
      18   0.00000E+00   0.10000E+01   0.00000E+00   0.00000E+00
      19   0.11701E+01   0.73991E+00   0.17013E+00  -0.26009E+00
      20   0.21648E+01   0.15759E+00   0.16476E+00  -0.84241E+00
      21   0.29667E+01  -0.60782E+00  -0.33282E-01  -0.16078E+01
      22   0.36106E+01  -0.14629E+01  -0.38938E+00  -0.24629E+01
      23   0.41538E+01  -0.23603E+01  -0.84622E+00  -0.33603E+01
      24   0.46241E+01  -0.32787E+01  -0.13759E+01  -0.42787E+01
      25   0.50542E+01  -0.42029E+01  -0.19458E+01  -0.52029E+01
      26   0.54577E+01  -0.51290E+01  -0.25423E+01  -0.61290E+01
      27   0.58520E+01  -0.60529E+01  -0.31480E+01  -0.70529E+01
      28   0.62411E+01  -0.69753E+01  -0.37589E+01  -0.79753E+01
  __________________________________________________

  _____________________________________________________________________________

            x-coord.     y-coord.     SigmaXX     SigmaYY     SigmaXY
                                        SXX         SYY          SXY
  _____________________________________________________________________________

    1     0.38878E+00  0.16344E+00 -0.13006E+07 -0.47097E+06  0.33002E+05
                                   -0.10816E+07 -0.41960E+06 -0.94147E+05
    1     0.48252E+00  0.72523E+00  0.12675E+07  0.24376E+06 -0.32066E+06
                                    0.17530E+07  0.29975E+06 -0.14889E+06
    1     0.13672E+01 -0.22501E+00 -0.72725E+06 -0.16850E+06  0.29278E+06
                                   -0.72140E+06 -0.15956E+05 -0.10510E+06
    1     0.16614E+01  0.26805E+00  0.64985E+06  0.28765E+06 -0.49165E+06
                                    0.12187E+07  0.38334E+05 -0.74542E+05
    2     0.19975E+01 -0.72855E+00 -0.38875E+06 -0.15521E+06  0.29406E+06
                                   -0.51199E+06  0.58443E+05 -0.88223E+05
    2     0.23849E+01 -0.30459E+00  0.29028E+06  0.31262E+06 -0.43528E+06
                                    0.86819E+06 -0.71789E+05 -0.46316E+05
    2     0.27296E+01 -0.15598E+01 -0.17186E+06 -0.19245E+06  0.17931E+06
                                   -0.33364E+06  0.13174E+04 -0.41160E+05
    2     0.31913E+01 -0.12151E+01  0.12093E+06  0.36910E+06 -0.22393E+06
                                    0.54746E+06  0.14724E+05 -0.55975E+05
    3     0.31822E+01 -0.22529E+01 -0.12116E+06 -0.14954E+06  0.10752E+06
                                   -0.22773E+06 -0.29719E+05 -0.35441E+05
    3     0.36717E+01 -0.19501E+01  0.64173E+05  0.29464E+06 -0.14497E+06
                                    0.38744E+06  0.85013E+04 -0.39376E+05
    3     0.37341E+01 -0.32472E+01 -0.36920E+05 -0.78676E+05  0.69035E+05
                                   -0.12264E+06  0.11921E+05 -0.23227E+05
    3     0.42474E+01 -0.29837E+01  0.29719E+05  0.20240E+06 -0.73550E+05
                                    0.23644E+06  0.96527E+04 -0.27268E+05
    4     0.40972E+01 -0.40035E+01 -0.36422E+05 -0.36318E+05  0.45258E+05
                                   -0.69826E+05 -0.97885E+03 -0.28797E+05
    4     0.46189E+01 -0.37582E+01  0.10679E+05  0.13019E+06 -0.57772E+05
                                    0.15792E+06 -0.10184E+05 -0.89502E+04
    4     0.45685E+01 -0.50527E+01 -0.10247E+05 -0.94347E+04  0.17083E+05
                                   -0.21924E+05  0.24992E+04 -0.11898E+05
    4     0.50972E+01 -0.48216E+01  0.29951E+04  0.74324E+05 -0.20312E+05
                                    0.79059E+05 -0.14451E+02 -0.12345E+05
    5     0.49002E+01 -0.58295E+01 -0.89215E+04  0.68420E+04  0.10205E+05
                                   -0.28825E+04  0.93697E+03 -0.12749E+05
    5     0.54309E+01 -0.56025E+01  0.42095E+04  0.35237E+05 -0.12239E+05
                                    0.39587E+05  0.26644E+03 -0.27490E+04
    5     0.53511E+01 -0.68925E+01 -0.29299E+04  0.64248E+04  0.22578E+04
                                    0.33891E+04  0.12825E+03 -0.49334E+04
    5     0.58826E+01 -0.66676E+01 -0.12321E+04  0.43199E+04 -0.40197E+04
                                    0.63717E+04 -0.32641E+04  0.81800E+03
  _____________________________________________________________________________


     Iteration No.  1     Error (root-mean-square value)=  0.1804E-01

     Iteration No.  2     Error (root-mean-square value)=  0.1460E-03

     S O L U T I O N :


     LOAD, FS................................= -0.2600E+02
  __________________________________________________

     Node    x-coord.      y-coord.     U      V  
  __________________________________________________

       1   0.00000E+00   0.00000E+00   0.00000E+00   0.00000E+00
       2   0.81209E+00  -0.18605E+00  -0.18791E+00  -0.18605E+00
       3   0.15514E+01  -0.64891E+00  -0.44860E+00  -0.64891E+00
       4   0.21971E+01  -0.12916E+01  -0.80293E+00  -0.12916E+01
       5   0.27503E+01  -0.20513E+01  -0.12497E+01  -0.20513E+01
       6   0.32296E+01  -0.28889E+01  -0.17704E+01  -0.28889E+01
       7   0.36618E+01  -0.37663E+01  -0.23382E+01  -0.37663E+01
       8   0.40598E+01  -0.46702E+01  -0.29402E+01  -0.46702E+01
       9   0.44418E+01  -0.55883E+01  -0.35582E+01  -0.55883E+01
      10   0.48154E+01  -0.65146E+01  -0.41846E+01  -0.65146E+01
      11   0.51894E+01  -0.74424E+01  -0.48106E+01  -0.74424E+01
      12   0.00000E+00   0.50000E+00   0.00000E+00   0.00000E+00
      13   0.18640E+01  -0.24596E+00  -0.13601E+00  -0.74596E+00
      14   0.31703E+01  -0.17805E+01  -0.82973E+00  -0.22805E+01
      15   0.41146E+01  -0.35540E+01  -0.18854E+01  -0.40540E+01
      16   0.49038E+01  -0.53987E+01  -0.30962E+01  -0.58987E+01
      17   0.56523E+01  -0.72554E+01  -0.43477E+01  -0.77554E+01
      18   0.00000E+00   0.10000E+01   0.00000E+00   0.00000E+00
      19   0.11738E+01   0.73213E+00   0.17378E+00  -0.26787E+00
      20   0.21638E+01   0.13589E+00   0.16385E+00  -0.86411E+00
      21   0.29547E+01  -0.64329E+00  -0.45286E-01  -0.16433E+01
      22   0.35839E+01  -0.15101E+01  -0.41614E+00  -0.25101E+01
      23   0.41111E+01  -0.24174E+01  -0.88886E+00  -0.34174E+01
      24   0.45649E+01  -0.33444E+01  -0.14351E+01  -0.43444E+01
      25   0.49784E+01  -0.42763E+01  -0.20216E+01  -0.52763E+01
      26   0.53653E+01  -0.52095E+01  -0.26347E+01  -0.62095E+01
      27   0.57431E+01  -0.61403E+01  -0.32569E+01  -0.71403E+01
      28   0.61157E+01  -0.70696E+01  -0.38843E+01  -0.80696E+01
  __________________________________________________

  _____________________________________________________________________________

            x-coord.     y-coord.     SigmaXX     SigmaYY     SigmaXY
                                        SXX         SYY          SXY
  _____________________________________________________________________________

    1     0.38817E+00  0.16197E+00 -0.13290E+07 -0.48550E+06  0.34245E+05
                                   -0.11011E+07 -0.43242E+06 -0.97986E+05
    1     0.48424E+00  0.72299E+00  0.12929E+07  0.24912E+06 -0.33490E+06
                                    0.18067E+07  0.30744E+06 -0.15465E+06
    1     0.13610E+01 -0.23487E+00 -0.73152E+06 -0.17729E+06  0.30250E+06
                                   -0.72966E+06 -0.16563E+05 -0.10828E+06
    1     0.16613E+01  0.25441E+00  0.64910E+06  0.30693E+06 -0.50621E+06
                                    0.12483E+07  0.41250E+05 -0.77183E+05
    2     0.19835E+01 -0.74780E+00 -0.38377E+06 -0.16296E+06  0.29882E+06
                                   -0.51400E+06  0.58829E+05 -0.90980E+05
    2     0.23775E+01 -0.33005E+00  0.28014E+06  0.33028E+06 -0.44198E+06
                                    0.88372E+06 -0.73177E+05 -0.46815E+05
    2     0.27015E+01 -0.15912E+01 -0.16528E+06 -0.19744E+06  0.17858E+06
                                   -0.33255E+06  0.16780E+04 -0.41536E+05
    2     0.31691E+01 -0.12546E+01  0.11441E+06  0.38192E+06 -0.22160E+06
                                    0.55453E+06  0.15672E+05 -0.57119E+05
    3     0.31416E+01 -0.22925E+01 -0.11782E+06 -0.15132E+06  0.10578E+06
                                   -0.22552E+06 -0.30654E+05 -0.36005E+05
    3     0.36364E+01 -0.19985E+01  0.59724E+05  0.30257E+06 -0.14242E+06
                                    0.39173E+06  0.84925E+04 -0.39557E+05
    3     0.36756E+01 -0.32968E+01 -0.33605E+05 -0.78930E+05  0.67391E+05
                                   -0.12013E+06  0.12323E+05 -0.23253E+05
    3     0.41936E+01 -0.30425E+01  0.27745E+05  0.20698E+06 -0.71047E+05
                                    0.23888E+06  0.10083E+05 -0.27408E+05
    4     0.40252E+01 -0.40596E+01 -0.34857E+05 -0.35814E+05  0.44605E+05
                                   -0.67645E+05 -0.11541E+04 -0.29197E+05
    4     0.45511E+01 -0.38237E+01  0.90047E+04  0.13331E+06 -0.56593E+05
                                    0.15974E+06 -0.10404E+05 -0.85416E+04
    4     0.44776E+01 -0.51172E+01 -0.93773E+04 -0.87496E+04  0.16559E+05
                                   -0.20419E+05  0.25313E+04 -0.11894E+05
    4     0.50103E+01 -0.48957E+01  0.25374E+04  0.75965E+05 -0.19459E+05
                                    0.80237E+05  0.35655E+02 -0.12280E+05
    5     0.47954E+01 -0.58999E+01 -0.85480E+04  0.74250E+04  0.10296E+05
                                   -0.19342E+04  0.94789E+03 -0.12949E+05
    5     0.53300E+01 -0.56825E+01  0.41189E+04  0.36168E+05 -0.12115E+05
                                    0.40384E+05  0.32492E+03 -0.24921E+04
    5     0.52272E+01 -0.69709E+01 -0.29701E+04  0.66273E+04  0.24087E+04
                                    0.36286E+04  0.52591E+02 -0.50653E+04
    5     0.57627E+01 -0.67555E+01 -0.13045E+04  0.45425E+04 -0.41288E+04
                                    0.65974E+04 -0.33381E+04  0.96684E+03
  _____________________________________________________________________________


     Iteration No.  1     Error (root-mean-square value)=  0.1691E-01

     Iteration No.  2     Error (root-mean-square value)=  0.1505E-03

     S O L U T I O N :


     LOAD, FS................................= -0.2700E+02
  __________________________________________________

     Node    x-coord.      y-coord.     U      V  
  __________________________________________________

       1   0.00000E+00   0.00000E+00   0.00000E+00   0.00000E+00
       2   0.80777E+00  -0.19006E+00  -0.19223E+00  -0.19006E+00
       3   0.15396E+01  -0.66112E+00  -0.46039E+00  -0.66112E+00
       4   0.21747E+01  -0.13135E+01  -0.82534E+00  -0.13135E+01
       5   0.27151E+01  -0.20822E+01  -0.12849E+01  -0.20822E+01
       6   0.31800E+01  -0.29280E+01  -0.18200E+01  -0.29280E+01
       7   0.35974E+01  -0.38129E+01  -0.24026E+01  -0.38129E+01
       8   0.39800E+01  -0.47237E+01  -0.30200E+01  -0.47237E+01
       9   0.43465E+01  -0.56482E+01  -0.36535E+01  -0.56482E+01
      10   0.47045E+01  -0.65808E+01  -0.42955E+01  -0.65808E+01
      11   0.50629E+01  -0.75147E+01  -0.49371E+01  -0.75147E+01
      12   0.00000E+00   0.50000E+00   0.00000E+00   0.00000E+00
      13   0.18578E+01  -0.26255E+00  -0.14225E+00  -0.76255E+00
      14   0.31395E+01  -0.18186E+01  -0.86051E+00  -0.23186E+01
      15   0.40536E+01  -0.36084E+01  -0.19464E+01  -0.41084E+01
      16   0.48116E+01  -0.54664E+01  -0.31884E+01  -0.59664E+01
      17   0.55288E+01  -0.73355E+01  -0.44712E+01  -0.78355E+01
      18   0.00000E+00   0.10000E+01   0.00000E+00   0.00000E+00
      19   0.11773E+01   0.72448E+00   0.17730E+00  -0.27552E+00
      20   0.21627E+01   0.11478E+00   0.16272E+00  -0.88522E+00
      21   0.29427E+01  -0.67746E+00  -0.57330E-01  -0.16775E+01
      22   0.35575E+01  -0.15553E+01  -0.44252E+00  -0.25553E+01
      23   0.40695E+01  -0.24717E+01  -0.93053E+00  -0.34717E+01
      24   0.45073E+01  -0.34065E+01  -0.14927E+01  -0.44065E+01
      25   0.49051E+01  -0.43453E+01  -0.20949E+01  -0.53453E+01
      26   0.52762E+01  -0.52850E+01  -0.27238E+01  -0.62850E+01
      27   0.56383E+01  -0.62221E+01  -0.33617E+01  -0.72221E+01
      28   0.59952E+01  -0.71576E+01  -0.40048E+01  -0.81576E+01
  __________________________________________________

  _____________________________________________________________________________

            x-coord.     y-coord.     SigmaXX     SigmaYY     SigmaXY
                                        SXX         SYY          SXY
  _____________________________________________________________________________

    1     0.38759E+00  0.16051E+00 -0.13565E+07 -0.49969E+06  0.35349E+05
                                   -0.11198E+07 -0.44499E+06 -0.10185E+06
    1     0.48593E+00  0.72076E+00  0.13172E+07  0.25439E+06 -0.34903E+06
                                    0.18596E+07  0.31500E+06 -0.16036E+06
    1     0.13550E+01 -0.24444E+00 -0.73501E+06 -0.18590E+06  0.31177E+06
                                   -0.73726E+06 -0.17117E+05 -0.11138E+06
    1     0.16611E+01  0.24111E+00  0.64761E+06  0.32628E+06 -0.52002E+06
                                    0.12770E+07  0.44208E+05 -0.79823E+05
    2     0.19699E+01 -0.76635E+00 -0.37856E+06 -0.17027E+06  0.30301E+06
                                   -0.51546E+06  0.59161E+05 -0.93691E+05
    2     0.23700E+01 -0.35469E+00  0.26985E+06  0.34750E+06 -0.44787E+06
                                    0.89839E+06 -0.74546E+05 -0.47252E+05
    2     0.26740E+01 -0.16212E+01 -0.15876E+06 -0.20184E+06  0.17748E+06
                                   -0.33105E+06  0.20706E+04 -0.41860E+05
    2     0.31472E+01 -0.12925E+01  0.10815E+06  0.39403E+06 -0.21886E+06
                                    0.56104E+06  0.16621E+05 -0.58211E+05
    3     0.31022E+01 -0.23301E+01 -0.11467E+06 -0.15259E+06  0.10390E+06
                                   -0.22300E+06 -0.31578E+05 -0.36544E+05
    3     0.36019E+01 -0.20446E+01  0.55534E+05  0.30993E+06 -0.13971E+06
                                    0.39565E+06  0.84788E+04 -0.39676E+05
    3     0.36190E+01 -0.33436E+01 -0.30460E+05 -0.78840E+05  0.65668E+05
                                   -0.11745E+06  0.12715E+05 -0.23253E+05
    3     0.41413E+01 -0.30982E+01  0.25958E+05  0.21118E+06 -0.68525E+05
                                    0.24111E+06  0.10506E+05 -0.27516E+05
    4     0.39557E+01 -0.41124E+01 -0.33382E+05 -0.35103E+05  0.43918E+05
                                   -0.65354E+05 -0.13238E+04 -0.29570E+05
    4     0.44855E+01 -0.38855E+01  0.74458E+04  0.13620E+06 -0.55405E+05
                                    0.16143E+06 -0.10618E+05 -0.81195E+04
    4     0.43902E+01 -0.51777E+01 -0.85661E+04 -0.79615E+04  0.16026E+05
                                   -0.18867E+05  0.25615E+04 -0.11880E+05
    4     0.49266E+01 -0.49652E+01  0.21369E+04  0.77493E+05 -0.18625E+05
                                    0.81357E+05  0.86400E+02 -0.12199E+05
    5     0.46949E+01 -0.59657E+01 -0.81918E+04  0.80421E+04  0.10377E+05
                                   -0.96735E+03  0.95738E+03 -0.13139E+05
    5     0.52330E+01 -0.57573E+01  0.40450E+04  0.37059E+05 -0.12000E+05
                                    0.41155E+05  0.38519E+03 -0.22282E+04
    5     0.51086E+01 -0.70439E+01 -0.30098E+04  0.68288E+04  0.25585E+04
                                    0.38687E+04 -0.24100E+02 -0.51946E+04
    5     0.56476E+01 -0.68376E+01 -0.13772E+04  0.47647E+04 -0.42385E+04
                                    0.68207E+04 -0.34104E+04  0.11174E+04
  _____________________________________________________________________________


     Iteration No.  1     Error (root-mean-square value)=  0.1589E-01

     Iteration No.  2     Error (root-mean-square value)=  0.1553E-03

     S O L U T I O N :


     LOAD, FS................................= -0.2800E+02
  __________________________________________________

     Node    x-coord.      y-coord.     U      V  
  __________________________________________________

       1   0.00000E+00   0.00000E+00   0.00000E+00   0.00000E+00
       2   0.80356E+00  -0.19397E+00  -0.19644E+00  -0.19397E+00
       3   0.15281E+01  -0.67289E+00  -0.47188E+00  -0.67289E+00
       4   0.21528E+01  -0.13344E+01  -0.84716E+00  -0.13344E+01
       5   0.26810E+01  -0.21116E+01  -0.13190E+01  -0.21116E+01
       6   0.31320E+01  -0.29652E+01  -0.18680E+01  -0.29652E+01
       7   0.35352E+01  -0.38569E+01  -0.24648E+01  -0.38569E+01
       8   0.39032E+01  -0.47739E+01  -0.30968E+01  -0.47739E+01
       9   0.42550E+01  -0.57043E+01  -0.37450E+01  -0.57043E+01
      10   0.45982E+01  -0.66425E+01  -0.44018E+01  -0.66425E+01
      11   0.49418E+01  -0.75820E+01  -0.50582E+01  -0.75820E+01
      12   0.00000E+00   0.50000E+00   0.00000E+00   0.00000E+00
      13   0.18516E+01  -0.27865E+00  -0.14844E+00  -0.77865E+00
      14   0.31094E+01  -0.18549E+01  -0.89057E+00  -0.23549E+01
      15   0.39946E+01  -0.36597E+01  -0.20054E+01  -0.41597E+01
      16   0.47229E+01  -0.55299E+01  -0.32771E+01  -0.60299E+01
      17   0.54104E+01  -0.74102E+01  -0.45896E+01  -0.79102E+01
      18   0.00000E+00   0.10000E+01   0.00000E+00   0.00000E+00
      19   0.11807E+01   0.71698E+00   0.18069E+00  -0.28302E+00
      20   0.21614E+01   0.94243E-01   0.16141E+00  -0.90576E+00
      21   0.29306E+01  -0.71040E+00  -0.69391E-01  -0.17104E+01
      22   0.35315E+01  -0.15985E+01  -0.46851E+00  -0.25985E+01
      23   0.40288E+01  -0.25233E+01  -0.97122E+00  -0.35233E+01
      24   0.44515E+01  -0.34652E+01  -0.15485E+01  -0.44652E+01
      25   0.48343E+01  -0.44104E+01  -0.21657E+01  -0.54104E+01
      26   0.51903E+01  -0.53559E+01  -0.28097E+01  -0.63559E+01
      27   0.55376E+01  -0.62987E+01  -0.34624E+01  -0.72987E+01
      28   0.58796E+01  -0.72398E+01  -0.41204E+01  -0.82398E+01
  __________________________________________________

  _____________________________________________________________________________

            x-coord.     y-coord.     SigmaXX     SigmaYY     SigmaXY
                                        SXX         SYY          SXY
  _____________________________________________________________________________

    1     0.38702E+00  0.15907E+00 -0.13830E+07 -0.51354E+06  0.36316E+05
                                   -0.11377E+07 -0.45731E+06 -0.10574E+06
    1     0.48757E+00  0.71855E+00  0.13406E+07  0.25957E+06 -0.36307E+06
                                    0.19116E+07  0.32243E+06 -0.16601E+06
    1     0.13492E+01 -0.25372E+00 -0.73779E+06 -0.19433E+06  0.32063E+06
                                   -0.74425E+06 -0.17616E+05 -0.11439E+06
    1     0.16608E+01  0.22813E+00  0.64544E+06  0.34566E+06 -0.53311E+06
                                    0.13047E+07  0.47203E+05 -0.82461E+05
    2     0.19566E+01 -0.78424E+00 -0.37315E+06 -0.17714E+06  0.30667E+06
                                   -0.51640E+06  0.59444E+05 -0.96357E+05
    2     0.23625E+01 -0.37853E+00  0.25947E+06  0.36428E+06 -0.45303E+06
                                    0.91224E+06 -0.75898E+05 -0.47629E+05
    2     0.26473E+01 -0.16499E+01 -0.15235E+06 -0.20567E+06  0.17606E+06
                                   -0.32917E+06  0.24939E+04 -0.42133E+05
    2     0.31256E+01 -0.13289E+01  0.10217E+06  0.40547E+06 -0.21577E+06
                                    0.56703E+06  0.17569E+05 -0.59256E+05
    3     0.30639E+01 -0.23659E+01 -0.11169E+06 -0.15338E+06  0.10190E+06
                                   -0.22022E+06 -0.32492E+05 -0.37060E+05
    3     0.35681E+01 -0.20886E+01  0.51598E+05  0.31675E+06 -0.13689E+06
                                    0.39922E+06  0.84606E+04 -0.39739E+05
    3     0.35644E+01 -0.33879E+01 -0.27481E+05 -0.78431E+05  0.63889E+05
                                   -0.11462E+06  0.13098E+05 -0.23231E+05
    3     0.40905E+01 -0.31510E+01  0.24347E+05  0.21503E+06 -0.66004E+05
                                    0.24314E+06  0.10922E+05 -0.27597E+05
    4     0.38886E+01 -0.41622E+01 -0.31996E+05 -0.34200E+05  0.43210E+05
                                   -0.62967E+05 -0.14880E+04 -0.29918E+05
    4     0.44220E+01 -0.39439E+01  0.59947E+04  0.13888E+06 -0.54221E+05
                                    0.16301E+06 -0.10827E+05 -0.76859E+04
    4     0.43062E+01 -0.52345E+01 -0.78105E+04 -0.70791E+04  0.15489E+05
                                   -0.17274E+05  0.25901E+04 -0.11856E+05
    4     0.48459E+01 -0.50306E+01  0.17884E+04  0.78920E+05 -0.17814E+05
                                    0.82426E+05  0.13774E+03 -0.12106E+05
    5     0.45983E+01 -0.60274E+01 -0.78527E+04  0.86908E+04  0.10451E+05
                                    0.15669E+02  0.96551E+03 -0.13321E+05
    5     0.51397E+01 -0.58275E+01  0.39862E+04  0.37914E+05 -0.11895E+05
                                    0.41904E+05  0.44706E+03 -0.19584E+04
    5     0.49949E+01 -0.71120E+01 -0.30490E+04  0.70294E+04  0.27072E+04
                                    0.41093E+04 -0.10165E+03 -0.53216E+04
    5     0.55371E+01 -0.69142E+01 -0.14502E+04  0.49866E+04 -0.43487E+04
                                    0.70418E+04 -0.34810E+04  0.12693E+04
  _____________________________________________________________________________


     Iteration No.  1     Error (root-mean-square value)=  0.1495E-01

     Iteration No.  2     Error (root-mean-square value)=  0.1600E-03

     S O L U T I O N :


     LOAD, FS................................= -0.2900E+02
  __________________________________________________

     Node    x-coord.      y-coord.     U      V  
  __________________________________________________

       1   0.00000E+00   0.00000E+00   0.00000E+00   0.00000E+00
       2   0.79946E+00  -0.19778E+00  -0.20054E+00  -0.19778E+00
       3   0.15169E+01  -0.68427E+00  -0.48309E+00  -0.68427E+00
       4   0.21316E+01  -0.13545E+01  -0.86843E+00  -0.13545E+01
       5   0.26478E+01  -0.21396E+01  -0.13522E+01  -0.21396E+01
       6   0.30856E+01  -0.30004E+01  -0.19144E+01  -0.30004E+01
       7   0.34753E+01  -0.38985E+01  -0.25247E+01  -0.38985E+01
       8   0.38293E+01  -0.48212E+01  -0.31707E+01  -0.48212E+01
       9   0.41672E+01  -0.57569E+01  -0.38328E+01  -0.57569E+01
      10   0.44963E+01  -0.67003E+01  -0.45037E+01  -0.67003E+01
      11   0.48258E+01  -0.76449E+01  -0.51742E+01  -0.76449E+01
      12   0.00000E+00   0.50000E+00   0.00000E+00   0.00000E+00
      13   0.18454E+01  -0.29429E+00  -0.15459E+00  -0.79429E+00
      14   0.30800E+01  -0.18898E+01  -0.91995E+00  -0.23898E+01
      15   0.39375E+01  -0.37084E+01  -0.20625E+01  -0.42084E+01
      16   0.46376E+01  -0.55896E+01  -0.33624E+01  -0.60896E+01
      17   0.52969E+01  -0.74801E+01  -0.47031E+01  -0.79801E+01
      18   0.00000E+00   0.10000E+01   0.00000E+00   0.00000E+00
      19   0.11840E+01   0.70960E+00   0.18397E+00  -0.29040E+00
      20   0.21599E+01   0.74241E-01   0.15992E+00  -0.92576E+00
      21   0.29186E+01  -0.74220E+00  -0.81449E-01  -0.17422E+01
      22   0.35059E+01  -0.16399E+01  -0.49410E+00  -0.26399E+01
      23   0.39891E+01  -0.25724E+01  -0.10109E+01  -0.35724E+01
      24   0.43972E+01  -0.35209E+01  -0.16028E+01  -0.45209E+01
      25   0.47657E+01  -0.44718E+01  -0.22343E+01  -0.54718E+01
      26   0.51075E+01  -0.54227E+01  -0.28925E+01  -0.64227E+01
      27   0.54407E+01  -0.63706E+01  -0.35593E+01  -0.73706E+01
      28   0.57686E+01  -0.73167E+01  -0.42314E+01  -0.83167E+01
  __________________________________________________

  _____________________________________________________________________________

            x-coord.     y-coord.     SigmaXX     SigmaYY     SigmaXY
                                        SXX         SYY          SXY
  _____________________________________________________________________________

    1     0.38648E+00  0.15765E+00 -0.14087E+07 -0.52705E+06  0.37149E+05
                                   -0.11549E+07 -0.46939E+06 -0.10965E+06
    1     0.48918E+00  0.71636E+00  0.13629E+07  0.26469E+06 -0.37699E+06
                                    0.19628E+07  0.32974E+06 -0.17161E+06
    1     0.13434E+01 -0.26275E+00 -0.73990E+06 -0.20258E+06  0.32909E+06
                                   -0.75066E+06 -0.18059E+05 -0.11732E+06
    1     0.16604E+01  0.21546E+00  0.64268E+06  0.36505E+06 -0.54550E+06
                                    0.13315E+07  0.50232E+05 -0.85098E+05
    2     0.19435E+01 -0.80153E+00 -0.36760E+06 -0.18357E+06  0.30984E+06
                                   -0.51687E+06  0.59680E+05 -0.98979E+05
    2     0.23550E+01 -0.40164E+00  0.24903E+06  0.38061E+06 -0.45751E+06
                                    0.92534E+06 -0.77237E+05 -0.47950E+05
    2     0.26212E+01 -0.16775E+01 -0.14605E+06 -0.20894E+06  0.17436E+06
                                   -0.32695E+06  0.29465E+04 -0.42359E+05
    2     0.31044E+01 -0.13639E+01  0.96474E+05  0.41625E+06 -0.21239E+06
                                    0.57253E+06  0.18515E+05 -0.60255E+05
    3     0.30267E+01 -0.24001E+01 -0.10889E+06 -0.15372E+06  0.99810E+05
                                   -0.21720E+06 -0.33396E+05 -0.37555E+05
    3     0.35350E+01 -0.21306E+01  0.47907E+05  0.32306E+06 -0.13399E+06
                                    0.40249E+06  0.84382E+04 -0.39749E+05
    3     0.35115E+01 -0.34300E+01 -0.24661E+05 -0.77727E+05  0.62072E+05
                                   -0.11165E+06  0.13473E+05 -0.23189E+05
    3     0.40411E+01 -0.32011E+01  0.22901E+05  0.21856E+06 -0.63501E+05
                                    0.24501E+06  0.11331E+05 -0.27652E+05
    4     0.38240E+01 -0.42093E+01 -0.30695E+05 -0.33121E+05  0.42490E+05
                                   -0.60495E+05 -0.16467E+04 -0.30244E+05
    4     0.43606E+01 -0.39990E+01  0.46437E+04  0.14136E+06 -0.53049E+05
                                    0.16448E+06 -0.11032E+05 -0.72424E+04
    4     0.42253E+01 -0.52880E+01 -0.71072E+04 -0.61108E+04  0.14954E+05
                                   -0.15645E+05  0.26172E+04 -0.11824E+05
    4     0.47680E+01 -0.50922E+01  0.14867E+04  0.80256E+05 -0.17029E+05
                                    0.83448E+05  0.18964E+03 -0.12000E+05
    5     0.45056E+01 -0.60852E+01 -0.75304E+04  0.93687E+04  0.10520E+05
                                    0.10126E+04  0.97239E+03 -0.13496E+05
    5     0.50499E+01 -0.58935E+01  0.39407E+04  0.38737E+05 -0.11801E+05
                                    0.42632E+05  0.51035E+03 -0.16834E+04
    5     0.48859E+01 -0.71757E+01 -0.30879E+04  0.72292E+04  0.28549E+04
                                    0.43503E+04 -0.17992E+03 -0.54465E+04
    5     0.54310E+01 -0.69861E+01 -0.15236E+04  0.52084E+04 -0.44596E+04
                                    0.72610E+04 -0.35503E+04  0.14223E+04
  _____________________________________________________________________________


     Iteration No.  1     Error (root-mean-square value)=  0.1410E-01

     Iteration No.  2     Error (root-mean-square value)=  0.1641E-03

     S O L U T I O N :


     LOAD, FS................................= -0.3000E+02
  __________________________________________________

     Node    x-coord.      y-coord.     U      V  
  __________________________________________________

       1   0.00000E+00   0.00000E+00   0.00000E+00   0.00000E+00
       2   0.79547E+00  -0.20151E+00  -0.20453E+00  -0.20151E+00
       3   0.15060E+01  -0.69527E+00  -0.49404E+00  -0.69527E+00
       4   0.21108E+01  -0.13739E+01  -0.88916E+00  -0.13739E+01
       5   0.26156E+01  -0.21665E+01  -0.13844E+01  -0.21665E+01
       6   0.30407E+01  -0.30340E+01  -0.19593E+01  -0.30340E+01
       7   0.34174E+01  -0.39380E+01  -0.25826E+01  -0.39380E+01
       8   0.37582E+01  -0.48659E+01  -0.32418E+01  -0.48659E+01
       9   0.40828E+01  -0.58064E+01  -0.39172E+01  -0.58064E+01
      10   0.43985E+01  -0.67545E+01  -0.46015E+01  -0.67545E+01
      11   0.47146E+01  -0.77036E+01  -0.52854E+01  -0.77036E+01
      12   0.00000E+00   0.50000E+00   0.00000E+00   0.00000E+00
      13   0.18393E+01  -0.30949E+00  -0.16069E+00  -0.80949E+00
      14   0.30513E+01  -0.19231E+01  -0.94866E+00  -0.24231E+01
      15   0.38823E+01  -0.37545E+01  -0.21177E+01  -0.42545E+01
      16   0.45555E+01  -0.56458E+01  -0.34445E+01  -0.61458E+01
      17   0.51880E+01  -0.75455E+01  -0.48120E+01  -0.80455E+01
      18   0.00000E+00   0.10000E+01   0.00000E+00   0.00000E+00
      19   0.11871E+01   0.70235E+00   0.18714E+00  -0.29765E+00
      20   0.21583E+01   0.54752E-01   0.15827E+00  -0.94525E+00
      21   0.29065E+01  -0.77290E+00  -0.93487E-01  -0.17729E+01
      22   0.34807E+01  -0.16796E+01  -0.51928E+00  -0.26796E+01
      23   0.39503E+01  -0.26193E+01  -0.10497E+01  -0.36193E+01
      24   0.43446E+01  -0.35738E+01  -0.16554E+01  -0.45738E+01
      25   0.46995E+01  -0.45299E+01  -0.23005E+01  -0.55299E+01
      26   0.50277E+01  -0.54856E+01  -0.29723E+01  -0.64856E+01
      27   0.53475E+01  -0.64382E+01  -0.36525E+01  -0.74382E+01
      28   0.56619E+01  -0.73889E+01  -0.43381E+01  -0.83889E+01
  __________________________________________________

  _____________________________________________________________________________

            x-coord.     y-coord.     SigmaXX     SigmaYY     SigmaXY
                                        SXX         SYY          SXY
  _____________________________________________________________________________

    1     0.38595E+00  0.15623E+00 -0.14336E+07 -0.54024E+06  0.37850E+05
                                   -0.11713E+07 -0.48124E+06 -0.11358E+06
    1     0.49075E+00  0.71418E+00  0.13844E+07  0.26974E+06 -0.39081E+06
                                    0.20133E+07  0.33695E+06 -0.17716E+06
    1     0.13378E+01 -0.27153E+00 -0.74141E+06 -0.21063E+06  0.33716E+06
                                   -0.75654E+06 -0.18445E+05 -0.12018E+06
    1     0.16600E+01  0.20309E+00  0.63937E+06  0.38443E+06 -0.55721E+06
                                    0.13574E+07  0.53292E+05 -0.87732E+05
    2     0.19306E+01 -0.81823E+00 -0.36195E+06 -0.18956E+06  0.31256E+06
                                   -0.51690E+06  0.59874E+05 -0.10156E+06
    2     0.23474E+01 -0.42404E+00  0.23860E+06  0.39648E+06 -0.46136E+06
                                    0.93774E+06 -0.78566E+05 -0.48216E+05
    2     0.25957E+01 -0.17039E+01 -0.13988E+06 -0.21170E+06  0.17242E+06
                                   -0.32442E+06  0.34271E+04 -0.42541E+05
    2     0.30834E+01 -0.13974E+01  0.91068E+05  0.42641E+06 -0.20876E+06
                                    0.57760E+06  0.19460E+05 -0.61211E+05
    3     0.29905E+01 -0.24327E+01 -0.10626E+06 -0.15365E+06  0.97654E+05
                                   -0.21396E+06 -0.34292E+05 -0.38032E+05
    3     0.35027E+01 -0.21707E+01  0.44452E+05  0.32891E+06 -0.13103E+06
                                    0.40547E+06  0.84120E+04 -0.39710E+05
    3     0.34602E+01 -0.34699E+01 -0.21995E+05 -0.76750E+05  0.60235E+05
                                   -0.10856E+06  0.13840E+05 -0.23128E+05
    3     0.39932E+01 -0.32488E+01  0.21607E+05  0.22179E+06 -0.61030E+05
                                    0.24672E+06  0.11733E+05 -0.27685E+05
    4     0.37616E+01 -0.42538E+01 -0.29475E+05 -0.31880E+05  0.41767E+05
                                   -0.57946E+05 -0.18000E+04 -0.30550E+05
    4     0.43011E+01 -0.40513E+01  0.33852E+04  0.14367E+06 -0.51898E+05
                                    0.16585E+06 -0.11234E+05 -0.67904E+04
    4     0.41475E+01 -0.53383E+01 -0.64531E+04 -0.50642E+04  0.14426E+05
                                   -0.13985E+05  0.26432E+04 -0.11785E+05
    4     0.46929E+01 -0.51503E+01  0.12271E+04  0.81511E+05 -0.16271E+05
                                    0.84429E+05  0.24209E+03 -0.11885E+05
    5     0.44165E+01 -0.61395E+01 -0.72246E+04  0.10073E+05  0.10586E+05
                                    0.20216E+04  0.97809E+03 -0.13665E+05
    5     0.49634E+01 -0.59555E+01  0.39070E+04  0.39532E+05 -0.11718E+05
                                    0.43343E+05  0.57489E+03 -0.14038E+04
    5     0.47813E+01 -0.72353E+01 -0.31267E+04  0.74285E+04  0.30017E+04
                                    0.45914E+04 -0.25876E+03 -0.55695E+04
    5     0.53291E+01 -0.70534E+01 -0.15974E+04  0.54299E+04 -0.45709E+04
                                    0.74784E+04 -0.36183E+04  0.15764E+04
  _____________________________________________________________________________


     Iteration No.  1     Error (root-mean-square value)=  0.1332E-01

     Iteration No.  2     Error (root-mean-square value)=  0.1675E-03

     S O L U T I O N :


     LOAD, FS................................= -0.3100E+02
  __________________________________________________

     Node    x-coord.      y-coord.     U      V  
  __________________________________________________

       1   0.00000E+00   0.00000E+00   0.00000E+00   0.00000E+00
       2   0.79157E+00  -0.20515E+00  -0.20843E+00  -0.20515E+00
       3   0.14953E+01  -0.70591E+00  -0.50473E+00  -0.70591E+00
       4   0.20906E+01  -0.13925E+01  -0.90939E+00  -0.13925E+01
       5   0.25843E+01  -0.21922E+01  -0.14157E+01  -0.21922E+01
       6   0.29971E+01  -0.30660E+01  -0.20029E+01  -0.30660E+01
       7   0.33614E+01  -0.39754E+01  -0.26386E+01  -0.39754E+01
       8   0.36896E+01  -0.49081E+01  -0.33104E+01  -0.49081E+01
       9   0.40016E+01  -0.58531E+01  -0.39984E+01  -0.58531E+01
      10   0.43046E+01  -0.68054E+01  -0.46954E+01  -0.68054E+01
      11   0.46081E+01  -0.77587E+01  -0.53919E+01  -0.77587E+01
      12   0.00000E+00   0.50000E+00   0.00000E+00   0.00000E+00
      13   0.18333E+01  -0.32427E+00  -0.16674E+00  -0.82427E+00
      14   0.30233E+01  -0.19551E+01  -0.97671E+00  -0.24551E+01
      15   0.38287E+01  -0.37983E+01  -0.21713E+01  -0.42983E+01
      16   0.44764E+01  -0.56989E+01  -0.35236E+01  -0.61989E+01
      17   0.50835E+01  -0.76069E+01  -0.49165E+01  -0.81069E+01
      18   0.00000E+00   0.10000E+01   0.00000E+00   0.00000E+00
      19   0.11902E+01   0.69521E+00   0.19020E+00  -0.30479E+00
      20   0.21565E+01   0.35749E-01   0.15648E+00  -0.96425E+00
      21   0.28945E+01  -0.80258E+00  -0.10549E+00  -0.18026E+01
      22   0.34560E+01  -0.17177E+01  -0.54405E+00  -0.27177E+01
      23   0.39124E+01  -0.26641E+01  -0.10876E+01  -0.36641E+01
      24   0.42935E+01  -0.36240E+01  -0.17065E+01  -0.46240E+01
      25   0.46354E+01  -0.45849E+01  -0.23646E+01  -0.55849E+01
      26   0.49507E+01  -0.55450E+01  -0.30493E+01  -0.65450E+01
      27   0.52578E+01  -0.65018E+01  -0.37422E+01  -0.75018E+01
      28   0.55594E+01  -0.74566E+01  -0.44406E+01  -0.84566E+01
  __________________________________________________

  _____________________________________________________________________________

            x-coord.     y-coord.     SigmaXX     SigmaYY     SigmaXY
                                        SXX         SYY          SXY
  _____________________________________________________________________________

    1     0.38543E+00  0.15483E+00 -0.14577E+07 -0.55312E+06  0.38423E+05
                                   -0.11871E+07 -0.49286E+06 -0.11754E+06
    1     0.49229E+00  0.71203E+00  0.14050E+07  0.27473E+06 -0.40451E+06
                                    0.20630E+07  0.34405E+06 -0.18266E+06
    1     0.13322E+01 -0.28009E+00 -0.74236E+06 -0.21849E+06  0.34485E+06
                                   -0.76192E+06 -0.18774E+05 -0.12296E+06
    1     0.16595E+01  0.19100E+00  0.63559E+06  0.40377E+06 -0.56827E+06
                                    0.13826E+07  0.56381E+05 -0.90365E+05
    2     0.19180E+01 -0.83439E+00 -0.35623E+06 -0.19511E+06  0.31486E+06
                                   -0.51652E+06  0.60027E+05 -0.10410E+06
    2     0.23399E+01 -0.44578E+00  0.22819E+06  0.41189E+06 -0.46463E+06
                                    0.94947E+06 -0.79887E+05 -0.48429E+05
    2     0.25708E+01 -0.17293E+01 -0.13385E+06 -0.21395E+06  0.17028E+06
                                   -0.32160E+06  0.39343E+04 -0.42681E+05
    2     0.30628E+01 -0.14297E+01  0.85947E+05  0.43598E+06 -0.20492E+06
                                    0.58227E+06  0.20403E+05 -0.62127E+05
    3     0.29553E+01 -0.24638E+01 -0.10380E+06 -0.15318E+06  0.95456E+05
                                   -0.21052E+06 -0.35180E+05 -0.38491E+05
    3     0.34711E+01 -0.22091E+01  0.41222E+05  0.33432E+06 -0.12804E+06
                                    0.40820E+06  0.83820E+04 -0.39625E+05
    3     0.34107E+01 -0.35078E+01 -0.19475E+05 -0.75521E+05  0.58389E+05
                                   -0.10535E+06  0.14200E+05 -0.23050E+05
    3     0.39466E+01 -0.32941E+01  0.20455E+05  0.22475E+06 -0.58600E+05
                                    0.24829E+06  0.12130E+05 -0.27696E+05
    4     0.37013E+01 -0.42960E+01 -0.28331E+05 -0.30492E+05  0.41048E+05
                                   -0.55331E+05 -0.19480E+04 -0.30838E+05
    4     0.42435E+01 -0.41009E+01  0.22120E+04  0.14582E+06 -0.50773E+05
                                    0.16715E+06 -0.11433E+05 -0.63313E+04
    4     0.40726E+01 -0.53858E+01 -0.58448E+04 -0.39466E+04  0.13906E+05
                                   -0.12298E+05  0.26683E+04 -0.11740E+05
    4     0.46205E+01 -0.52052E+01  0.10054E+04  0.82693E+05 -0.15543E+05
                                    0.85374E+05  0.29507E+03 -0.11760E+05
    5     0.43308E+01 -0.61906E+01 -0.69347E+04  0.10803E+05  0.10650E+05
                                    0.30408E+04  0.98271E+03 -0.13828E+05
    5     0.48802E+01 -0.60140E+01  0.38838E+04  0.40301E+05 -0.11647E+05
                                    0.44037E+05  0.64055E+03 -0.11202E+04
    5     0.46810E+01 -0.72913E+01 -0.31654E+04  0.76274E+04  0.31475E+04
                                    0.48326E+04 -0.33808E+03 -0.56908E+04
    5     0.52311E+01 -0.71167E+01 -0.16718E+04  0.56513E+04 -0.46828E+04
                                    0.76941E+04 -0.36852E+04  0.17312E+04
  _____________________________________________________________________________


     Iteration No.  1     Error (root-mean-square value)=  0.1261E-01

     Iteration No.  2     Error (root-mean-square value)=  0.1703E-03

     S O L U T I O N :


     LOAD, FS................................= -0.3200E+02
  __________________________________________________

     Node    x-coord.      y-coord.     U      V  
  __________________________________________________

       1   0.00000E+00   0.00000E+00   0.00000E+00   0.00000E+00
       2   0.78777E+00  -0.20871E+00  -0.21223E+00  -0.20871E+00
       3   0.14848E+01  -0.71621E+00  -0.51517E+00  -0.71621E+00
       4   0.20709E+01  -0.14104E+01  -0.92913E+00  -0.14104E+01
       5   0.25538E+01  -0.22168E+01  -0.14462E+01  -0.22168E+01
       6   0.29549E+01  -0.30965E+01  -0.20451E+01  -0.30965E+01
       7   0.33074E+01  -0.40109E+01  -0.26926E+01  -0.40109E+01
       8   0.36236E+01  -0.49481E+01  -0.33764E+01  -0.49481E+01
       9   0.39236E+01  -0.58971E+01  -0.40764E+01  -0.58971E+01
      10   0.42144E+01  -0.68533E+01  -0.47856E+01  -0.68533E+01
      11   0.45058E+01  -0.78104E+01  -0.54942E+01  -0.78104E+01
      12   0.00000E+00   0.50000E+00   0.00000E+00   0.00000E+00
      13   0.18273E+01  -0.33867E+00  -0.17274E+00  -0.83867E+00
      14   0.29959E+01  -0.19858E+01  -0.10041E+01  -0.24858E+01
      15   0.37769E+01  -0.38400E+01  -0.22231E+01  -0.43400E+01
      16   0.44002E+01  -0.57489E+01  -0.35998E+01  -0.62489E+01
      17   0.49832E+01  -0.76646E+01  -0.50168E+01  -0.81646E+01
      18   0.00000E+00   0.10000E+01   0.00000E+00   0.00000E+00
      19   0.11932E+01   0.68819E+00   0.19317E+00  -0.31181E+00
      20   0.21546E+01   0.17212E-01   0.15455E+00  -0.98279E+00
      21   0.28826E+01  -0.83128E+00  -0.11745E+00  -0.18313E+01
      22   0.34316E+01  -0.17543E+01  -0.56840E+00  -0.27543E+01
      23   0.38755E+01  -0.27068E+01  -0.11245E+01  -0.37068E+01
      24   0.42438E+01  -0.36718E+01  -0.17562E+01  -0.46718E+01
      25   0.45734E+01  -0.46371E+01  -0.24266E+01  -0.56371E+01
      26   0.48764E+01  -0.56011E+01  -0.31236E+01  -0.66011E+01
      27   0.51714E+01  -0.65618E+01  -0.38286E+01  -0.75618E+01
      28   0.54609E+01  -0.75204E+01  -0.45391E+01  -0.85204E+01
  __________________________________________________

  _____________________________________________________________________________

            x-coord.     y-coord.     SigmaXX     SigmaYY     SigmaXY
                                        SXX         SYY          SXY
  _____________________________________________________________________________

    1     0.38493E+00  0.15344E+00 -0.14811E+07 -0.56568E+06  0.38871E+05
                                   -0.12022E+07 -0.50426E+06 -0.12151E+06
    1     0.49379E+00  0.70989E+00  0.14249E+07  0.27967E+06 -0.41810E+06
                                    0.21121E+07  0.35106E+06 -0.18810E+06
    1     0.13268E+01 -0.28842E+00 -0.74280E+06 -0.22615E+06  0.35219E+06
                                   -0.76684E+06 -0.19047E+05 -0.12567E+06
    1     0.16589E+01  0.17917E+00  0.63138E+06  0.42305E+06 -0.57869E+06
                                    0.14070E+07  0.59494E+05 -0.92995E+05
    2     0.19057E+01 -0.85004E+00 -0.35046E+06 -0.20024E+06  0.31679E+06
                                   -0.51576E+06  0.60143E+05 -0.10660E+06
    2     0.23323E+01 -0.46689E+00  0.21784E+06  0.42684E+06 -0.46737E+06
                                    0.96058E+06 -0.81202E+05 -0.48591E+05
    2     0.25466E+01 -0.17537E+01 -0.12796E+06 -0.21573E+06  0.16795E+06
                                   -0.31852E+06  0.44668E+04 -0.42781E+05
    2     0.30426E+01 -0.14609E+01  0.81108E+05  0.44498E+06 -0.20091E+06
                                    0.58656E+06  0.21344E+05 -0.63005E+05
    3     0.29211E+01 -0.24937E+01 -0.10151E+06 -0.15235E+06  0.93234E+05
                                   -0.20691E+06 -0.36060E+05 -0.38934E+05
    3     0.34403E+01 -0.22459E+01  0.38206E+05  0.33932E+06 -0.12505E+06
                                    0.41070E+06  0.83486E+04 -0.39497E+05
    3     0.33627E+01 -0.35439E+01 -0.17094E+05 -0.74062E+05  0.56547E+05
                                   -0.10205E+06  0.14554E+05 -0.22957E+05
    3     0.39013E+01 -0.33373E+01  0.19433E+05  0.22746E+06 -0.56221E+05
                                    0.24974E+06  0.12521E+05 -0.27689E+05
    4     0.36431E+01 -0.43360E+01 -0.27260E+05 -0.28969E+05  0.40338E+05
                                   -0.52657E+05 -0.20909E+04 -0.31108E+05
    4     0.41877E+01 -0.41480E+01  0.11173E+04  0.14783E+06 -0.49680E+05
                                    0.16837E+06 -0.11629E+05 -0.58660E+04
    4     0.40004E+01 -0.54307E+01 -0.52794E+04 -0.27648E+04  0.13397E+05
                                   -0.10587E+05  0.26926E+04 -0.11689E+05
    4     0.45505E+01 -0.52571E+01  0.81760E+03  0.83811E+05 -0.14844E+05
                                    0.86286E+05  0.34858E+03 -0.11627E+05
    5     0.42484E+01 -0.62388E+01 -0.66600E+04  0.11554E+05  0.10714E+05
                                    0.40688E+04  0.98631E+03 -0.13985E+05
    5     0.48000E+01 -0.60692E+01  0.38697E+04  0.41047E+05 -0.11588E+05
                                    0.44717E+05  0.70718E+03 -0.83322E+03
    5     0.45847E+01 -0.73439E+01 -0.32042E+04  0.78258E+04  0.32926E+04
                                    0.50738E+04 -0.41776E+03 -0.58105E+04
    5     0.51370E+01 -0.71764E+01 -0.17467E+04  0.58727E+04 -0.47952E+04
                                    0.79083E+04 -0.37510E+04  0.18866E+04
  _____________________________________________________________________________

