     *** ECHO OF THE INPUT DATA STARTS ***

    Example 9.6.5: BENDING OF A CANTILEVER BEAM UNDER UDL (5 NINE-NODE)         
    9   3   2   1   0   1   2   1             NPE,NGPF,NGPR,MESH,NPRNT,IGRAD,NON
                                                                                
    5   1                                NX,NY                                  
    0.0  2.0  2.0  2.0  2.0  2.0         X0,(DX(I),I=1,NX)                      
    0.0  1.0                             Y0,(DY(I),I=1,NY)                      
                                                                                
    9                                    NSPV and next lines ISPV, VSPV         
    1 1  1 2  12 1  12 2  23 1  23 2  11 1  22 1  33 1     ISPV                 
    0.0  0.0  0.0   0.0   0.0   0.0   0.0   0.0   0.0      VSPV                 
                                                                                
    22                                   NSSV and next lines ISSV, VSSV         
     1 2   2 2   3 2   4 2   5 2   6 2   7 2   8 2   9 2  10 2  11 2            
    23 2  24 2  25 2  26 2  27 2  28 2  29 2  30 2  31 2  32 2  33 2  ISSV      
    8.333 33.333 16.667 33.333 16.667 33.333 16.667 33.333 16.667 33.333 8.333  
    8.333 33.333 16.667 33.333 16.667 33.333 16.667 33.333 16.667 33.333 8.333  
                                                                                
    2                                    LFORM                                  
    10.0  1.0  0.1                       A,B,THIKNS                             
    7.8E06  2.6E06  1.3E06  0.25         E1,E2,G12,ANU                          
                                                                                
    32   10   0.001   0.0                NLS,ITMAX,EPS,REX                      
    -1.0 -1.0 -1.0 -1.0 -1.0 -1.0 -1.0 -1.0 -1.0 -1.0                           
    -1.0 -1.0 -1.0 -1.0 -1.0 -1.0 -1.0 -1.0 -1.0 -1.0                           
    -1.0 -1.0 -1.0 -1.0 -1.0 -1.0 -1.0 -1.0 -1.0 -1.0                           
    -1.0 -1.0                            DP(I)                                  

     **** ECHO OF THE INPUT DATA ENDS ****

    Example 9.6.5: BENDING OF A CANTILEVER BEAM UNDER UDL (5 NINE-NODE)         
  ______________________________________________________________________

            OUTPUT FROM PROGRAM  *FEM2DUNSYM*  BY J.N. REDDY
  ______________________________________________________________________


     NONLINEAR ANALYSIS DATA:

        Number of load steps, NLS ...............=  32
        Max. no. of iterations allowed, ITMAX ...=  10
        Type of iter. method used (1: DI; >1 NR).=   2
        Error tolerance, EPS ....................=  0.1000E-02
        Acceleration parameter, REX .............=  0.0000E+00


        *** A mesh of QUADRILATERALS is chosen by user ***

     FINITE ELEMENT MESH INFORMATION:

        Element type: 1 = LINEAR; 2=QUADRATIC)...=   2
        Number of nodes per element, NPE ........=   9
        No. of primary deg. of freedom/node, NDF =   2
        Number of elements in the mesh, NEM .....=   5
        Number of nodes in the mesh, NNM ........=  33
        Number of equations to be solved, NEQ ...=  66
        Half bandwidth of the matrix GLK, NHBW ..=  50
        Mesh subdivisions, NX and NY ............=   5   1

        No. of specified PRIMARY variables, NSPV =   9
        No. of speci.  SECONDARY variables, NSSV =  22

      Node  DOF     Value

         1   2   0.83330E+01
         2   2   0.33333E+02
         3   2   0.16667E+02
         4   2   0.33333E+02
         5   2   0.16667E+02
         6   2   0.33333E+02
         7   2   0.16667E+02
         8   2   0.33333E+02
         9   2   0.16667E+02
        10   2   0.33333E+02
        11   2   0.83330E+01
        23   2   0.83330E+01
        24   2   0.33333E+02
        25   2   0.16667E+02
        26   2   0.33333E+02
        27   2   0.16667E+02
        28   2   0.33333E+02
        29   2   0.16667E+02
        30   2   0.33333E+02
        31   2   0.16667E+02
        32   2   0.33333E+02
        33   2   0.83330E+01
  ______________________________________________________________________

     Node   x-coord.   y-coord.    Speci. primary & secondary variables
                                      (0, unspecified; >0, specified)
                                         Primary DOF  Secondary DOF
  ______________________________________________________________________

       1  0.0000E+00  0.0000E+00            1    2        0    2
       2  0.1000E+01  0.0000E+00            0    0        0    2
       3  0.2000E+01  0.0000E+00            0    0        0    2
       4  0.3000E+01  0.0000E+00            0    0        0    2
       5  0.4000E+01  0.0000E+00            0    0        0    2
       6  0.5000E+01  0.0000E+00            0    0        0    2
       7  0.6000E+01  0.0000E+00            0    0        0    2
       8  0.7000E+01  0.0000E+00            0    0        0    2
       9  0.8000E+01  0.0000E+00            0    0        0    2
      10  0.9000E+01  0.0000E+00            0    0        0    2
      11  0.1000E+02  0.0000E+00            1    0        0    2
      12  0.0000E+00  0.5000E+00            1    2        0    0
      13  0.1000E+01  0.5000E+00            0    0        0    0
      14  0.2000E+01  0.5000E+00            0    0        0    0
      15  0.3000E+01  0.5000E+00            0    0        0    0
      16  0.4000E+01  0.5000E+00            0    0        0    0
      17  0.5000E+01  0.5000E+00            0    0        0    0
      18  0.6000E+01  0.5000E+00            0    0        0    0
      19  0.7000E+01  0.5000E+00            0    0        0    0
      20  0.8000E+01  0.5000E+00            0    0        0    0
      21  0.9000E+01  0.5000E+00            0    0        0    0
      22  0.1000E+02  0.5000E+00            1    0        0    0
      23  0.0000E+00  0.1000E+01            1    2        0    2
      24  0.1000E+01  0.1000E+01            0    0        0    2
      25  0.2000E+01  0.1000E+01            0    0        0    2
      26  0.3000E+01  0.1000E+01            0    0        0    2
      27  0.4000E+01  0.1000E+01            0    0        0    2
      28  0.5000E+01  0.1000E+01            0    0        0    2
      29  0.6000E+01  0.1000E+01            0    0        0    2
      30  0.7000E+01  0.1000E+01            0    0        0    2
      31  0.8000E+01  0.1000E+01            0    0        0    2
      32  0.9000E+01  0.1000E+01            0    0        0    2
      33  0.1000E+02  0.1000E+01            1    0        0    2
  ______________________________________________________________________


     NUMERICAL INTEGRATION DATA (Gauss Points):

        Full quadrature (NGPF x NGPF) rule, NGPF =   3
        Reduced quadrature (NGPR x NGPR),   NGPR =   2


        *** The NEWTON iteration scheme is used ***

     Iteration No.  1     Error (root-mean-square value)=  0.1000E+01

     Iteration No.  2     Error (root-mean-square value)=  0.5440E-01

     Iteration No.  3     Error (root-mean-square value)=  0.4417E-02

     Iteration No.  4     Error (root-mean-square value)=  0.7256E-04

     S O L U T I O N :


     LOAD, FS................................= -0.1000E+01
  __________________________________________________

     Node    x-coord.      y-coord.     U      V  
  __________________________________________________

       1   0.00000E+00   0.00000E+00   0.00000E+00   0.00000E+00
       2   0.99023E+00  -0.14543E-01  -0.97731E-02  -0.14543E-01
       3   0.19831E+01  -0.45483E-01  -0.16919E-01  -0.45483E-01
       4   0.29789E+01  -0.87438E-01  -0.21066E-01  -0.87438E-01
       5   0.39768E+01  -0.13463E+00  -0.23194E-01  -0.13463E+00
       6   0.49771E+01  -0.18247E+00  -0.22943E-01  -0.18247E+00
       7   0.59790E+01  -0.22696E+00  -0.20993E-01  -0.22696E+00
       8   0.69828E+01  -0.26486E+00  -0.17239E-01  -0.26486E+00
       9   0.79877E+01  -0.29370E+00  -0.12296E-01  -0.29370E+00
      10   0.89936E+01  -0.31169E+00  -0.63632E-02  -0.31169E+00
      11   0.10000E+02  -0.31782E+00   0.00000E+00  -0.31782E+00
      12   0.00000E+00   0.50000E+00   0.00000E+00   0.00000E+00
      13   0.10006E+01   0.48591E+00   0.57980E-03  -0.14092E-01
      14   0.20007E+01   0.45438E+00   0.74512E-03  -0.45619E-01
      15   0.30005E+01   0.41225E+00   0.47225E-03  -0.87755E-01
      16   0.39999E+01   0.36479E+00  -0.51626E-04  -0.13521E+00
      17   0.49994E+01   0.31689E+00  -0.60797E-03  -0.18311E+00
      18   0.59990E+01   0.27239E+00  -0.10142E-02  -0.22761E+00
      19   0.69989E+01   0.23456E+00  -0.11472E-02  -0.26544E+00
      20   0.79990E+01   0.20578E+00  -0.98105E-03  -0.29422E+00
      21   0.89994E+01   0.18786E+00  -0.56125E-03  -0.31214E+00
      22   0.10000E+02   0.18174E+00   0.00000E+00  -0.31826E+00
      23   0.00000E+00   0.10000E+01   0.00000E+00   0.00000E+00
      24   0.10106E+01   0.98503E+00   0.10586E-01  -0.14971E-01
      25   0.20180E+01   0.95376E+00   0.18019E-01  -0.46236E-01
      26   0.30218E+01   0.91151E+00   0.21779E-01  -0.88491E-01
      27   0.40231E+01   0.86416E+00   0.23057E-01  -0.13584E+00
      28   0.50219E+01   0.81639E+00   0.21860E-01  -0.18361E+00
      29   0.60192E+01   0.77208E+00   0.19210E-01  -0.22792E+00
      30   0.70152E+01   0.73446E+00   0.15216E-01  -0.26554E+00
      31   0.80106E+01   0.70587E+00   0.10565E-01  -0.29413E+00
      32   0.90054E+01   0.68807E+00   0.53705E-02  -0.31193E+00
      33   0.10000E+02   0.68201E+00   0.00000E+00  -0.31799E+00
  __________________________________________________

  _____________________________________________________________________________

            x-coord.     y-coord.     SigmaXX     SigmaYY     SigmaXY
                                        SXX         SYY          SXY
  _____________________________________________________________________________

    1     0.42023E+00  0.20741E+00 -0.42939E+05 -0.13993E+04 -0.42878E+04
                                   -0.42149E+05 -0.14131E+04 -0.44297E+04
    1     0.42560E+00  0.78465E+00  0.51262E+05  0.14829E+04 -0.52940E+04
                                    0.52350E+05  0.14852E+04 -0.51300E+04
    1     0.15695E+01  0.18115E+00 -0.27269E+05  0.77949E+03 -0.32814E+04
                                   -0.26436E+05  0.64793E+03 -0.36401E+04
    1     0.15865E+01  0.75814E+00  0.35638E+05 -0.60663E+03 -0.51426E+04
                                    0.36902E+05 -0.77542E+03 -0.46849E+04
    2     0.24120E+01  0.14872E+00 -0.14366E+05  0.18960E+03 -0.30297E+04
                                   -0.13573E+05  0.98097E+01 -0.32615E+04
    2     0.24345E+01  0.72555E+00  0.22501E+05  0.32305E+03 -0.45351E+04
                                    0.23671E+05  0.87903E+02 -0.41781E+04
    2     0.35644E+01  0.97116E-01 -0.26863E+04  0.46429E+03 -0.28994E+04
                                   -0.18944E+04  0.26353E+03 -0.29618E+04
    2     0.35906E+01  0.67380E+00  0.10857E+05  0.12175E+03 -0.35046E+04
                                    0.11810E+05 -0.10577E+03 -0.32926E+04
    3     0.44091E+01  0.55804E-01  0.68216E+04  0.41884E+03 -0.28887E+04
                                    0.76037E+04  0.22382E+03 -0.27681E+04
    3     0.44356E+01  0.63247E+00  0.13673E+04  0.91721E+02 -0.26721E+04
                                    0.20894E+04 -0.93043E+02 -0.26390E+04
    3     0.55642E+01  0.24505E-02  0.14953E+05  0.30203E+03 -0.26771E+04
                                    0.15650E+05  0.14539E+03 -0.24196E+04
    3     0.55888E+01  0.57920E+00 -0.67135E+04  0.20165E+02 -0.17365E+04
                                   -0.62559E+04 -0.95093E+02 -0.18500E+04
    4     0.64109E+01 -0.33071E-01  0.21204E+05  0.29798E+03 -0.24149E+04
                                    0.21815E+05  0.18463E+03 -0.20966E+04
    4     0.64323E+01  0.54380E+00 -0.12873E+05 -0.92677E+02 -0.11586E+04
                                   -0.12558E+05 -0.15998E+03 -0.13515E+04
    4     0.75685E+01 -0.71589E-01  0.26035E+05  0.13426E+03 -0.18105E+04
                                    0.26480E+05  0.85307E+02 -0.15218E+04
    4     0.75841E+01  0.50545E+00 -0.17662E+05 -0.15228E+03 -0.61479E+03
                                   -0.17469E+05 -0.17404E+03 -0.81048E+03
    5     0.84166E+01 -0.91710E-01  0.29135E+05  0.12108E+03 -0.12458E+04
                                    0.29482E+05  0.11320E+03 -0.10296E+04
    5     0.84271E+01  0.48545E+00 -0.20694E+05 -0.21303E+03 -0.33416E+03
                                   -0.20539E+05 -0.21359E+03 -0.48824E+03
    5     0.95757E+01 -0.10562E+00  0.30743E+05  0.51012E+02 -0.34465E+03
                                    0.31002E+05  0.74399E+02 -0.28154E+03
    5     0.95786E+01  0.47162E+00 -0.22286E+05 -0.23535E+03 -0.79641E+02
                                   -0.22154E+05 -0.22336E+03 -0.12555E+03
  _____________________________________________________________________________


     Iteration No.  1     Error (root-mean-square value)=  0.4699E+00

     Iteration No.  2     Error (root-mean-square value)=  0.4950E-01

     Iteration No.  3     Error (root-mean-square value)=  0.4386E-02

     Iteration No.  4     Error (root-mean-square value)=  0.1774E-03

     S O L U T I O N :


     LOAD, FS................................= -0.2000E+01
  __________________________________________________

     Node    x-coord.      y-coord.     U      V  
  __________________________________________________

       1   0.00000E+00   0.00000E+00   0.00000E+00   0.00000E+00
       2   0.98272E+00  -0.26848E-01  -0.17275E-01  -0.26848E-01
       3   0.19701E+01  -0.83236E-01  -0.29872E-01  -0.83236E-01
       4   0.29627E+01  -0.15892E+00  -0.37349E-01  -0.15892E+00
       5   0.39586E+01  -0.24340E+00  -0.41448E-01  -0.24340E+00
       6   0.49587E+01  -0.32848E+00  -0.41347E-01  -0.32848E+00
       7   0.59619E+01  -0.40709E+00  -0.38109E-01  -0.40709E+00
       8   0.69685E+01  -0.47369E+00  -0.31494E-01  -0.47369E+00
       9   0.79774E+01  -0.52415E+00  -0.22551E-01  -0.52415E+00
      10   0.89883E+01  -0.55554E+00  -0.11705E-01  -0.55554E+00
      11   0.10000E+02  -0.56620E+00   0.00000E+00  -0.56620E+00
      12   0.00000E+00   0.50000E+00   0.00000E+00   0.00000E+00
      13   0.10018E+01   0.47364E+00   0.18280E-02  -0.26357E-01
      14   0.20023E+01   0.41593E+00   0.22755E-02  -0.84067E-01
      15   0.30013E+01   0.33974E+00   0.13367E-02  -0.16026E+00
      16   0.39996E+01   0.25472E+00  -0.35490E-03  -0.24528E+00
      17   0.49979E+01   0.16962E+00  -0.20901E-02  -0.33038E+00
      18   0.59967E+01   0.91146E-01  -0.33117E-02  -0.40885E+00
      19   0.69963E+01   0.24858E-01  -0.36640E-02  -0.47514E+00
      20   0.79969E+01  -0.25317E-01  -0.30944E-02  -0.52532E+00
      21   0.89982E+01  -0.56462E-01  -0.17586E-02  -0.55646E+00
      22   0.10000E+02  -0.67061E-01   0.00000E+00  -0.56706E+00
      23   0.00000E+00   0.10000E+01   0.00000E+00   0.00000E+00
      24   0.10198E+01   0.97176E+00   0.19783E-01  -0.28235E-01
      25   0.20332E+01   0.91433E+00   0.33199E-01  -0.85670E-01
      26   0.30393E+01   0.83771E+00   0.39336E-01  -0.16229E+00
      27   0.40407E+01   0.75279E+00   0.40686E-01  -0.24721E+00
      28   0.50376E+01   0.66797E+00   0.37617E-01  -0.33203E+00
      29   0.60323E+01   0.58997E+00   0.32259E-01  -0.41003E+00
      30   0.70250E+01   0.52423E+00   0.25003E-01  -0.47577E+00
      31   0.80171E+01   0.47455E+00   0.17061E-01  -0.52545E+00
      32   0.90086E+01   0.44374E+00   0.85781E-02  -0.55626E+00
      33   0.10000E+02   0.43326E+00   0.00000E+00  -0.56674E+00
  __________________________________________________

  _____________________________________________________________________________

            x-coord.     y-coord.     SigmaXX     SigmaYY     SigmaXY
                                        SXX         SYY          SXY
  _____________________________________________________________________________

    1     0.41858E+00  0.20394E+00 -0.72384E+05 -0.25119E+04 -0.79319E+04
                                   -0.69951E+05 -0.25905E+04 -0.83685E+04
    1     0.42840E+00  0.78093E+00  0.98400E+05  0.27926E+04 -0.11249E+05
                                    0.10258E+06  0.28091E+04 -0.10690E+05
    1     0.15640E+01  0.15574E+00 -0.42151E+05  0.15653E+04 -0.54308E+04
                                   -0.39693E+05  0.11324E+04 -0.64527E+04
    1     0.15948E+01  0.73192E+00  0.68309E+05 -0.80287E+03 -0.11416E+05
                                    0.73270E+05 -0.14525E+04 -0.98352E+04
    2     0.24043E+01  0.96831E-01 -0.18488E+05  0.69335E+03 -0.52273E+04
                                   -0.16065E+05  0.11454E+03 -0.57706E+04
    2     0.24446E+01  0.67251E+00  0.43885E+05  0.11272E+04 -0.98471E+04
                                    0.48403E+05  0.24456E+03 -0.85987E+04
    2     0.35544E+01  0.40547E-02  0.23445E+04  0.12885E+04 -0.55345E+04
                                    0.50168E+04  0.61256E+03 -0.55000E+04
    2     0.36011E+01  0.57928E+00  0.23185E+05  0.68815E+03 -0.72011E+04
                                    0.26646E+05 -0.11723E+03 -0.63968E+04
    3     0.43980E+01 -0.69636E-01  0.18891E+05  0.11919E+04 -0.59740E+04
                                    0.21745E+05  0.50651E+03 -0.53687E+04
    3     0.44450E+01  0.50555E+00  0.67233E+04  0.49963E+03 -0.50865E+04
                                    0.91392E+04 -0.11166E+03 -0.48353E+04
    3     0.55530E+01 -0.16416E+00  0.32661E+05  0.88852E+03 -0.59123E+04
                                    0.35353E+05  0.31512E+03 -0.49218E+04
    3     0.55962E+01  0.41132E+00 -0.68697E+04  0.15395E+03 -0.28846E+04
                                   -0.55501E+04 -0.18711E+03 -0.30784E+04
    4     0.64005E+01 -0.22666E+00  0.43136E+05  0.79067E+03 -0.55170E+04
                                    0.45545E+05  0.36584E+03 -0.43864E+04
    4     0.64379E+01  0.34921E+00 -0.17051E+05 -0.13240E+03 -0.16182E+04
                                   -0.16280E+05 -0.30995E+03 -0.20594E+04
    4     0.75604E+01 -0.29413E+00  0.51157E+05  0.33101E+03 -0.42451E+04
                                    0.52909E+05  0.14335E+03 -0.32637E+04
    4     0.75876E+01  0.28229E+00 -0.24930E+05 -0.36941E+03 -0.61461E+03
                                   -0.24536E+05 -0.41650E+03 -0.10891E+04
    5     0.84111E+01 -0.32919E+00  0.56242E+05  0.21998E+03 -0.29541E+04
                                    0.57574E+05  0.18688E+03 -0.22354E+04
    5     0.84293E+01  0.24758E+00 -0.29808E+05 -0.49166E+03 -0.21450E+03
                                   -0.29504E+05 -0.48952E+03 -0.59575E+03
    5     0.95741E+01 -0.35340E+00  0.58900E+05  0.16777E+02 -0.82220E+03
                                    0.59865E+05  0.10335E+03 -0.61475E+03
    5     0.95791E+01  0.22362E+00 -0.32412E+05 -0.56596E+03 -0.31715E+02
                                   -0.32136E+05 -0.54105E+03 -0.14599E+03
  _____________________________________________________________________________


     Iteration No.  1     Error (root-mean-square value)=  0.2699E+00

     Iteration No.  2     Error (root-mean-square value)=  0.1819E-01

     Iteration No.  3     Error (root-mean-square value)=  0.1231E-02

     Iteration No.  4     Error (root-mean-square value)=  0.7115E-04

     S O L U T I O N :


     LOAD, FS................................= -0.3000E+01
  __________________________________________________

     Node    x-coord.      y-coord.     U      V  
  __________________________________________________

       1   0.00000E+00   0.00000E+00   0.00000E+00   0.00000E+00
       2   0.97684E+00  -0.37389E-01  -0.23156E-01  -0.37389E-01
       3   0.19601E+01  -0.11469E+00  -0.39919E-01  -0.11469E+00
       4   0.29500E+01  -0.21732E+00  -0.49980E-01  -0.21732E+00
       5   0.39443E+01  -0.33089E+00  -0.55680E-01  -0.33089E+00
       6   0.49442E+01  -0.44440E+00  -0.55762E-01  -0.44440E+00
       7   0.59485E+01  -0.54852E+00  -0.51540E-01  -0.54852E+00
       8   0.69573E+01  -0.63622E+00  -0.42697E-01  -0.63622E+00
       9   0.79694E+01  -0.70231E+00  -0.30598E-01  -0.70231E+00
      10   0.89841E+01  -0.74330E+00  -0.15900E-01  -0.74330E+00
      11   0.10000E+02  -0.75718E+00   0.00000E+00  -0.75718E+00
      12   0.00000E+00   0.50000E+00   0.00000E+00   0.00000E+00
      13   0.10032E+01   0.46292E+00   0.32451E-02  -0.37076E-01
      14   0.20039E+01   0.38354E+00   0.38958E-02  -0.11646E+00
      15   0.30021E+01   0.28006E+00   0.20823E-02  -0.21994E+00
      16   0.39990E+01   0.16574E+00  -0.99067E-03  -0.33426E+00
      17   0.49960E+01   0.52328E-01  -0.40296E-02  -0.44767E+00
      18   0.59939E+01  -0.51447E-01  -0.60840E-02  -0.55145E+00
      19   0.69934E+01  -0.13852E+00  -0.65857E-02  -0.63852E+00
      20   0.79945E+01  -0.20408E+00  -0.54918E-02  -0.70408E+00
      21   0.89969E+01  -0.24464E+00  -0.31001E-02  -0.74464E+00
      22   0.10000E+02  -0.25841E+00   0.00000E+00  -0.75841E+00
      23   0.00000E+00   0.10000E+01   0.00000E+00   0.00000E+00
      24   0.10275E+01   0.96008E+00   0.27501E-01  -0.39921E-01
      25   0.20456E+01   0.88087E+00   0.45565E-01  -0.11913E+00
      26   0.30530E+01   0.77660E+00   0.53013E-01  -0.22340E+00
      27   0.40537E+01   0.66233E+00   0.53705E-01  -0.33767E+00
      28   0.50486E+01   0.54936E+00   0.48555E-01  -0.45064E+00
      29   0.60407E+01   0.44637E+00   0.40740E-01  -0.55363E+00
      30   0.70310E+01   0.36021E+00   0.30968E-01  -0.63979E+00
      31   0.80208E+01   0.29545E+00   0.20801E-01  -0.70455E+00
      32   0.90104E+01   0.25546E+00   0.10357E-01  -0.74454E+00
      33   0.10000E+02   0.24187E+00   0.00000E+00  -0.75813E+00
  __________________________________________________

  _____________________________________________________________________________

            x-coord.     y-coord.     SigmaXX     SigmaYY     SigmaXY
                                        SXX         SYY          SXY
  _____________________________________________________________________________

    1     0.41740E+00  0.20082E+00 -0.93290E+05 -0.34033E+04 -0.11318E+05
                                   -0.88878E+05 -0.36037E+04 -0.12085E+05
    1     0.43088E+00  0.77750E+00  0.13902E+06  0.39475E+04 -0.17481E+05
                                    0.14778E+06  0.39860E+04 -0.16424E+05
    1     0.15599E+01  0.13423E+00 -0.49545E+05  0.23883E+04 -0.72137E+04
                                   -0.45199E+05  0.15568E+04 -0.88787E+04
    1     0.16019E+01  0.70944E+00  0.95515E+05 -0.59149E+03 -0.18038E+05
                                    0.10600E+06 -0.19546E+04 -0.15042E+05
    2     0.23984E+01  0.53809E-01 -0.16987E+05  0.13847E+04 -0.72916E+04
                                   -0.12500E+05  0.28431E+03 -0.79772E+04
    2     0.24528E+01  0.62813E+00  0.61564E+05  0.22511E+04 -0.15223E+05
                                    0.70937E+05  0.45136E+03 -0.12860E+05
    2     0.35465E+01 -0.71465E-01  0.10776E+05  0.22916E+04 -0.82466E+04
                                    0.16065E+05  0.97527E+03 -0.78477E+04
    2     0.36089E+01  0.50207E+00  0.34077E+05  0.14661E+04 -0.10747E+05
                                    0.40954E+05 -0.10493E+03 -0.91592E+04
    3     0.43891E+01 -0.17012E+00  0.32296E+05  0.21429E+04 -0.92235E+04
                                    0.38143E+05  0.78804E+03 -0.78329E+04
    3     0.44515E+01  0.40341E+00  0.12764E+05  0.10200E+04 -0.72811E+04
                                    0.17328E+05 -0.12053E+03 -0.66570E+04
    3     0.55439E+01 -0.29571E+00  0.49684E+05  0.16215E+04 -0.93122E+04
                                    0.55271E+05  0.48043E+03 -0.73244E+04
    3     0.56006E+01  0.27837E+00 -0.42775E+04  0.28614E+03 -0.38449E+04
                                   -0.20034E+04 -0.30716E+03 -0.39743E+04
    4     0.63919E+01 -0.37812E+00  0.62758E+05  0.13784E+04 -0.87389E+04
                                    0.67737E+05  0.53292E+03 -0.65869E+04
    4     0.64409E+01  0.19667E+00 -0.16820E+05 -0.18248E+03 -0.19497E+04
                                   -0.15640E+05 -0.47057E+03 -0.25048E+04
    4     0.75537E+01 -0.46667E+00  0.72699E+05  0.58549E+03 -0.67420E+04
                                    0.76275E+05  0.21328E+03 -0.49344E+04
    4     0.75891E+01  0.10907E+00 -0.26485E+05 -0.61499E+03 -0.55865E+03
                                   -0.25991E+05 -0.68294E+03 -0.12018E+04
    5     0.84064E+01 -0.51244E+00  0.78899E+05  0.33390E+03 -0.46902E+04
                                    0.81569E+05  0.26727E+03 -0.33892E+04
    5     0.84301E+01  0.63913E-01 -0.32333E+05 -0.78073E+03 -0.72780E+02
                                   -0.31984E+05 -0.77730E+03 -0.60130E+03
    5     0.95728E+01 -0.54400E+00  0.82183E+05 -0.16133E+02 -0.13044E+04
                                    0.84076E+05  0.15346E+03 -0.93246E+03
    5     0.95792E+01  0.32783E-01 -0.35513E+05 -0.90111E+03  0.17662E+02
                                   -0.35184E+05 -0.87196E+03 -0.14184E+03
  _____________________________________________________________________________


     Iteration No.  1     Error (root-mean-square value)=  0.1774E+00

     Iteration No.  2     Error (root-mean-square value)=  0.4760E-02

     Iteration No.  3     Error (root-mean-square value)=  0.2088E-03

     S O L U T I O N :


     LOAD, FS................................= -0.4000E+01
  __________________________________________________

     Node    x-coord.      y-coord.     U      V  
  __________________________________________________

       1   0.00000E+00   0.00000E+00   0.00000E+00   0.00000E+00
       2   0.97194E+00  -0.46804E-01  -0.28061E-01  -0.46804E-01
       3   0.19518E+01  -0.14211E+00  -0.48215E-01  -0.14211E+00
       4   0.29396E+01  -0.26733E+00  -0.60389E-01  -0.26733E+00
       5   0.39326E+01  -0.40478E+00  -0.67413E-01  -0.40478E+00
       6   0.49324E+01  -0.54114E+00  -0.67632E-01  -0.54114E+00
       7   0.59374E+01  -0.66537E+00  -0.62559E-01  -0.66537E+00
       8   0.69481E+01  -0.76939E+00  -0.51860E-01  -0.76939E+00
       9   0.79628E+01  -0.84742E+00  -0.37152E-01  -0.84742E+00
      10   0.89807E+01  -0.89565E+00  -0.19310E-01  -0.89565E+00
      11   0.10000E+02  -0.91196E+00   0.00000E+00  -0.91196E+00
      12   0.00000E+00   0.50000E+00   0.00000E+00   0.00000E+00
      13   0.10047E+01   0.45321E+00   0.46727E-02  -0.46788E-01
      14   0.20054E+01   0.35508E+00   0.54087E-02  -0.14492E+00
      15   0.30026E+01   0.22869E+00   0.26001E-02  -0.27131E+00
      16   0.39981E+01   0.90334E-01  -0.19117E-02  -0.40967E+00
      17   0.49938E+01  -0.45762E-01  -0.62236E-02  -0.54576E+00
      18   0.59910E+01  -0.16938E+00  -0.90244E-02  -0.66938E+00
      19   0.69904E+01  -0.27247E+00  -0.95826E-02  -0.77247E+00
      20   0.79921E+01  -0.34972E+00  -0.79013E-02  -0.84972E+00
      21   0.89956E+01  -0.39735E+00  -0.44335E-02  -0.89735E+00
      22   0.10000E+02  -0.41349E+00   0.00000E+00  -0.91349E+00
      23   0.00000E+00   0.10000E+01   0.00000E+00   0.00000E+00
      24   0.10342E+01   0.94945E+00   0.34174E-01  -0.50547E-01
      25   0.20560E+01   0.85134E+00   0.55992E-01  -0.14866E+00
      26   0.30641E+01   0.72377E+00   0.64083E-01  -0.27623E+00
      27   0.40637E+01   0.58544E+00   0.63728E-01  -0.41456E+00
      28   0.50565E+01   0.44997E+00   0.56477E-01  -0.55003E+00
      29   0.60465E+01   0.32744E+00   0.46470E-01  -0.67256E+00
      30   0.70347E+01   0.22562E+00   0.34715E-01  -0.77438E+00
      31   0.80230E+01   0.14946E+00   0.22987E-01  -0.85054E+00
      32   0.90113E+01   0.10260E+00   0.11345E-01  -0.89740E+00
      33   0.10000E+02   0.86699E-01   0.00000E+00  -0.91330E+00
  __________________________________________________

  _____________________________________________________________________________

            x-coord.     y-coord.     SigmaXX     SigmaYY     SigmaXY
                                        SXX         SYY          SXY
  _____________________________________________________________________________

    1     0.41650E+00  0.19790E+00 -0.10934E+06 -0.41489E+04 -0.14594E+05
                                   -0.10273E+06 -0.45224E+04 -0.15694E+05
    1     0.43311E+00  0.77427E+00  0.17452E+06  0.50166E+04 -0.23835E+05
                                    0.18901E+06  0.50819E+04 -0.22240E+05
    1     0.15567E+01  0.11524E+00 -0.52869E+05  0.32802E+04 -0.89013E+04
                                   -0.46449E+05  0.19757E+04 -0.11119E+05
    1     0.16080E+01  0.68943E+00  0.11838E+06 -0.43420E+02 -0.24726E+05
                                    0.13578E+06 -0.22938E+04 -0.20196E+05
    2     0.23936E+01  0.16503E-01 -0.12727E+05  0.22189E+04 -0.94372E+04
                                   -0.57729E+04  0.49712E+03 -0.10078E+05
    2     0.24597E+01  0.58939E+00  0.76192E+05  0.35914E+04 -0.20449E+05
                                    0.91441E+05  0.69841E+03 -0.16897E+05
    2     0.35399E+01 -0.13572E+00  0.20447E+05  0.34122E+04 -0.11107E+05
                                    0.28992E+05  0.13293E+04 -0.10127E+05
    2     0.36150E+01  0.43609E+00  0.43474E+05  0.23459E+04 -0.14087E+05
                                    0.54300E+05 -0.93497E+02 -0.11632E+05
    3     0.43816E+01 -0.25462E+00  0.45620E+05  0.32028E+04 -0.12589E+05
                                    0.55178E+05  0.10564E+04 -0.10221E+05
    3     0.44561E+01  0.31724E+00  0.18676E+05  0.15789E+04 -0.93225E+04
                                    0.25630E+05 -0.13923E+03 -0.82294E+04
    3     0.55360E+01 -0.40492E+00  0.65406E+05  0.24345E+04 -0.12737E+05
                                    0.74498E+05  0.63882E+03 -0.96282E+04
    3     0.56032E+01  0.16781E+00 -0.56442E+03  0.40121E+03 -0.47693E+04
                                    0.27189E+04 -0.45586E+03 -0.47123E+04
    4     0.63846E+01 -0.50282E+00  0.80117E+05  0.20120E+04 -0.11912E+05
                                    0.88133E+05  0.69183E+03 -0.86723E+04
    4     0.64423E+01  0.70937E-01 -0.14498E+05 -0.24202E+03 -0.23289E+04
                                   -0.12914E+05 -0.64473E+03 -0.28652E+04
    4     0.75480E+01 -0.60755E+00  0.91262E+05  0.87760E+03 -0.91514E+04
                                    0.96939E+05  0.30285E+03 -0.64992E+04
    4     0.75895E+01 -0.32440E-01 -0.25215E+05 -0.86151E+03 -0.59536E+03
                                   -0.24656E+05 -0.95407E+03 -0.12920E+04
    5     0.84025E+01 -0.66141E+00  0.98091E+05  0.46606E+03 -0.63457E+04
                                    0.10227E+06  0.36421E+03 -0.44624E+04
    5     0.84301E+01 -0.85454E-01 -0.31556E+05 -0.10595E+04 -0.15832E+02
                                   -0.31214E+05 -0.10600E+04 -0.60588E+03
    5     0.95716E+01 -0.69850E+00  0.10177E+06 -0.28586E+02 -0.17605E+04
                                    0.10468E+06  0.23268E+03 -0.12262E+04
    5     0.95792E+01 -0.12195E+00 -0.35069E+05 -0.12177E+04  0.39289E+02
                                   -0.34750E+05 -0.11903E+04 -0.14053E+03
  _____________________________________________________________________________


     Iteration No.  1     Error (root-mean-square value)=  0.1284E+00

     Iteration No.  2     Error (root-mean-square value)=  0.9769E-03

     S O L U T I O N :


     LOAD, FS................................= -0.5000E+01
  __________________________________________________

     Node    x-coord.      y-coord.     U      V  
  __________________________________________________

       1   0.00000E+00   0.00000E+00   0.00000E+00   0.00000E+00
       2   0.96768E+00  -0.55436E-01  -0.32324E-01  -0.55436E-01
       3   0.19446E+01  -0.16674E+00  -0.55370E-01  -0.16674E+00
       4   0.29306E+01  -0.31163E+00  -0.69358E-01  -0.31163E+00
       5   0.39225E+01  -0.46949E+00  -0.77519E-01  -0.46949E+00
       6   0.49222E+01  -0.62502E+00  -0.77836E-01  -0.62502E+00
       7   0.59280E+01  -0.76583E+00  -0.71990E-01  -0.76583E+00
       8   0.69403E+01  -0.88311E+00  -0.59671E-01  -0.88311E+00
       9   0.79573E+01  -0.97072E+00  -0.42712E-01  -0.97072E+00
      10   0.89778E+01  -0.10247E+01  -0.22197E-01  -0.10247E+01
      11   0.10000E+02  -0.10430E+01   0.00000E+00  -0.10430E+01
      12   0.00000E+00   0.50000E+00   0.00000E+00   0.00000E+00
      13   0.10061E+01   0.44421E+00   0.60644E-02  -0.55789E-01
      14   0.20068E+01   0.32936E+00   0.67735E-02  -0.17064E+00
      15   0.30029E+01   0.18301E+00   0.28944E-02  -0.31699E+00
      16   0.39969E+01   0.24151E-01  -0.30582E-02  -0.47585E+00
      17   0.49914E+01  -0.13092E+00  -0.85738E-02  -0.63092E+00
      18   0.59880E+01  -0.27085E+00  -0.12023E-01  -0.77085E+00
      19   0.69874E+01  -0.38690E+00  -0.12558E-01  -0.88690E+00
      20   0.79897E+01  -0.47349E+00  -0.10254E-01  -0.97349E+00
      21   0.89943E+01  -0.52673E+00  -0.57237E-02  -0.10267E+01
      22   0.10000E+02  -0.54474E+00   0.00000E+00  -0.10447E+01
      23   0.00000E+00   0.10000E+01   0.00000E+00   0.00000E+00
      24   0.10401E+01   0.93958E+00   0.40107E-01  -0.60418E-01
      25   0.20651E+01   0.82455E+00   0.65058E-01  -0.17545E+00
      26   0.30733E+01   0.67665E+00   0.73349E-01  -0.32335E+00
      27   0.40717E+01   0.51780E+00   0.71729E-01  -0.48220E+00
      28   0.50624E+01   0.36355E+00   0.62430E-01  -0.63645E+00
      29   0.60505E+01   0.22503E+00   0.50466E-01  -0.77497E+00
      30   0.70371E+01   0.11058E+00   0.37109E-01  -0.88942E+00
      31   0.80243E+01   0.25341E-01   0.24251E-01  -0.97466E+00
      32   0.90119E+01  -0.26944E-01   0.11872E-01  -0.10269E+01
      33   0.10000E+02  -0.44667E-01   0.00000E+00  -0.10447E+01
  __________________________________________________

  _____________________________________________________________________________

            x-coord.     y-coord.     SigmaXX     SigmaYY     SigmaXY
                                        SXX         SYY          SXY
  _____________________________________________________________________________

    1     0.41576E+00  0.19515E+00 -0.12235E+06 -0.47798E+04 -0.17801E+05
                                   -0.11335E+06 -0.53706E+04 -0.19225E+05
    1     0.43516E+00  0.77119E+00  0.20616E+06  0.60129E+04 -0.30203E+05
                                    0.22731E+06  0.61108E+04 -0.28053E+05
    1     0.15539E+01  0.97991E-01 -0.53789E+05  0.42611E+04 -0.10584E+05
                                   -0.45104E+05  0.24197E+04 -0.13260E+05
    1     0.16135E+01  0.67114E+00  0.13796E+06  0.71843E+03 -0.31321E+05
                                    0.16332E+06 -0.25482E+04 -0.25206E+05
    2     0.23895E+01 -0.16873E-01 -0.70613E+04  0.31754E+04 -0.11712E+05
                                    0.27753E+04  0.74090E+03 -0.12149E+05
    2     0.24656E+01  0.55457E+00  0.88525E+05  0.50494E+04 -0.25446E+05
                                    0.11036E+06  0.94622E+03 -0.20681E+05
    2     0.35341E+01 -0.19233E+00  0.30442E+05  0.46159E+04 -0.14094E+05
                                    0.42818E+05  0.16628E+04 -0.12373E+05
    2     0.36198E+01  0.37778E+00  0.51702E+05  0.32673E+04 -0.17231E+05
                                    0.66812E+05 -0.10031E+03 -0.13866E+05
    3     0.43749E+01 -0.32834E+00  0.58395E+05  0.43264E+04 -0.16009E+05
                                    0.72241E+05  0.13008E+04 -0.12545E+05
    3     0.44595E+01  0.24191E+00  0.24343E+05  0.21469E+04 -0.11261E+05
                                    0.33846E+05 -0.17674E+03 -0.96333E+04
    3     0.55291E+01 -0.49916E+00  0.79852E+05  0.32812E+04 -0.16119E+05
                                    0.92880E+05  0.77998E+03 -0.11833E+05
    3     0.56047E+01  0.72278E-01  0.36800E+04  0.50581E+03 -0.57148E+04
                                    0.80392E+04 -0.62695E+03 -0.53773E+04
    4     0.63781E+01 -0.60971E+00  0.95645E+05  0.26560E+04 -0.14983E+05
                                    0.10699E+06  0.83526E+03 -0.10645E+05
    4     0.64429E+01 -0.36915E-01 -0.11075E+05 -0.30203E+03 -0.27970E+04
                                   -0.90496E+04 -0.82973E+03 -0.32092E+04
    4     0.75430E+01 -0.72751E+00  0.10761E+06  0.11868E+04 -0.11447E+05
                                    0.11555E+06  0.40422E+03 -0.79676E+04
    4     0.75893E+01 -0.15297E+00 -0.22427E+05 -0.10967E+04 -0.74257E+03
                                   -0.21795E+05 -0.12221E+04 -0.14020E+04
    5     0.83991E+01 -0.78780E+00  0.11481E+06  0.61100E+03 -0.79095E+04
                                    0.12058E+06  0.47512E+03 -0.54659E+04
    5     0.84298E+01 -0.21221E+00 -0.29002E+05 -0.13221E+04 -0.49416E+02
                                   -0.28681E+05 -0.13324E+04 -0.63382E+03
    5     0.95707E+01 -0.82928E+00  0.11875E+06 -0.18369E+02 -0.21890E+04
                                    0.12275E+06  0.33868E+03 -0.15002E+04
    5     0.95791E+01 -0.25296E+00 -0.32713E+05 -0.15129E+04  0.33281E+02
                                   -0.32437E+05 -0.14905E+04 -0.14752E+03
  _____________________________________________________________________________


     Iteration No.  1     Error (root-mean-square value)=  0.9950E-01

     Iteration No.  2     Error (root-mean-square value)=  0.3125E-02

     Iteration No.  3     Error (root-mean-square value)=  0.4163E-03

     S O L U T I O N :


     LOAD, FS................................= -0.6000E+01
  __________________________________________________

     Node    x-coord.      y-coord.     U      V  
  __________________________________________________

       1   0.00000E+00   0.00000E+00   0.00000E+00   0.00000E+00
       2   0.96382E+00  -0.63594E-01  -0.36178E-01  -0.63594E-01
       3   0.19382E+01  -0.18961E+00  -0.61789E-01  -0.18961E+00
       4   0.29226E+01  -0.35222E+00  -0.77380E-01  -0.35222E+00
       5   0.39135E+01  -0.52815E+00  -0.86525E-01  -0.52815E+00
       6   0.49131E+01  -0.70036E+00  -0.86879E-01  -0.70036E+00
       7   0.59197E+01  -0.85535E+00  -0.80292E-01  -0.85535E+00
       8   0.69335E+01  -0.98380E+00  -0.66513E-01  -0.98380E+00
       9   0.79524E+01  -0.10794E+01  -0.47560E-01  -0.10794E+01
      10   0.89753E+01  -0.11382E+01  -0.24709E-01  -0.11382E+01
      11   0.10000E+02  -0.11580E+01   0.00000E+00  -0.11580E+01
      12   0.00000E+00   0.50000E+00   0.00000E+00   0.00000E+00
      13   0.10074E+01   0.43562E+00   0.74310E-02  -0.64375E-01
      14   0.20080E+01   0.30536E+00   0.80154E-02  -0.19464E+00
      15   0.30030E+01   0.14102E+00   0.30079E-02  -0.35898E+00
      16   0.39956E+01  -0.35952E-01  -0.43746E-02  -0.53595E+00
      17   0.49890E+01  -0.20747E+00  -0.11021E-01  -0.70747E+00
      18   0.59850E+01  -0.36129E+00  -0.15025E-01  -0.86129E+00
      19   0.69845E+01  -0.48822E+00  -0.15470E-01  -0.98822E+00
      20   0.79875E+01  -0.58256E+00  -0.12524E-01  -0.10826E+01
      21   0.89930E+01  -0.64043E+00  -0.69586E-02  -0.11404E+01
      22   0.10000E+02  -0.65998E+00   0.00000E+00  -0.11600E+01
      23   0.00000E+00   0.10000E+01   0.00000E+00   0.00000E+00
      24   0.10455E+01   0.93018E+00   0.45501E-01  -0.69817E-01
      25   0.20732E+01   0.79952E+00   0.73183E-01  -0.20048E+00
      26   0.30814E+01   0.63324E+00   0.81366E-01  -0.36676E+00
      27   0.40783E+01   0.45627E+00   0.78339E-01  -0.54373E+00
      28   0.50670E+01   0.28580E+00   0.67045E-01  -0.71420E+00
      29   0.60533E+01   0.13369E+00   0.53305E-01  -0.86631E+00
      30   0.70386E+01   0.86793E-02   0.38620E-01  -0.99132E+00
      31   0.80249E+01  -0.84069E-01   0.24927E-01  -0.10841E+01
      32   0.90121E+01  -0.14081E+00   0.12109E-01  -0.11408E+01
      33   0.10000E+02  -0.16003E+00   0.00000E+00  -0.11600E+01
  __________________________________________________

  _____________________________________________________________________________

            x-coord.     y-coord.     SigmaXX     SigmaYY     SigmaXY
                                        SXX         SYY          SXY
  _____________________________________________________________________________

    1     0.41514E+00  0.19247E+00 -0.13332E+06 -0.53504E+04 -0.21008E+05
                                   -0.12173E+06 -0.62021E+04 -0.22742E+05
    1     0.43707E+00  0.76819E+00  0.23495E+06  0.70565E+04 -0.36708E+05
                                    0.26368E+06  0.71921E+04 -0.34009E+05
    1     0.15515E+01  0.81826E-01 -0.53122E+05  0.53066E+04 -0.12283E+05
                                   -0.41967E+05  0.28678E+04 -0.15327E+05
    1     0.16184E+01  0.65392E+00  0.15519E+06  0.18457E+04 -0.37973E+05
                                    0.18959E+06 -0.25685E+04 -0.30270E+05
    2     0.23858E+01 -0.47731E-01 -0.49099E+03  0.42419E+04 -0.14117E+05
                                    0.12661E+05  0.10067E+04 -0.14210E+05
    2     0.24707E+01  0.52226E+00  0.99204E+05  0.67046E+04 -0.30314E+05
                                    0.12829E+06  0.12832E+04 -0.24344E+05
    2     0.35288E+01 -0.24392E+00  0.40553E+05  0.59152E+04 -0.17215E+05
                                    0.57331E+05  0.19951E+04 -0.14624E+05
    2     0.36238E+01  0.32451E+00  0.59060E+05  0.42409E+04 -0.20236E+05
                                    0.78730E+05 -0.10251E+03 -0.15937E+05
    3     0.43688E+01 -0.39493E+00  0.70674E+05  0.55425E+04 -0.19504E+05
                                    0.89354E+05  0.15597E+04 -0.14861E+05
    3     0.44620E+01  0.17377E+00  0.29751E+05  0.27311E+04 -0.13128E+05
                                    0.41932E+05 -0.21895E+03 -0.10921E+05
    3     0.55228E+01 -0.58344E+00  0.93271E+05  0.41955E+04 -0.19487E+05
                                    0.11061E+06  0.94784E+03 -0.14002E+05
    3     0.56055E+01 -0.13204E-01  0.81639E+04  0.60292E+03 -0.66893E+04
                                    0.13669E+05 -0.81727E+03 -0.59997E+04
    4     0.63723E+01 -0.70468E+00  0.10975E+06  0.33425E+04 -0.17976E+05
                                    0.12466E+06  0.10045E+04 -0.12557E+05
    4     0.64428E+01 -0.13278E+00 -0.70431E+04 -0.35789E+03 -0.33551E+04
                                   -0.45147E+04 -0.10241E+04 -0.35621E+04
    4     0.75386E+01 -0.83341E+00  0.12226E+06  0.15254E+04 -0.13638E+05
                                    0.13255E+06  0.53453E+03 -0.93645E+04
    4     0.75887E+01 -0.25941E+00 -0.18778E+05 -0.13180E+04 -0.99774E+03
                                   -0.18037E+05 -0.14869E+04 -0.15513E+04
    5     0.83960E+01 -0.89902E+00  0.12967E+06  0.77095E+03 -0.93850E+04
                                    0.13708E+06  0.60330E+03 -0.64097E+04
    5     0.84293E+01 -0.32378E+00 -0.25442E+05 -0.15708E+04 -0.17216E+03
                                   -0.25131E+05 -0.15972E+04 -0.70051E+03
    5     0.95698E+01 -0.94412E+00  0.13379E+06  0.40784E+01 -0.25896E+04
                                    0.13888E+06  0.45878E+03 -0.17553E+04
    5     0.95789E+01 -0.36801E+00 -0.29277E+05 -0.17917E+04  0.16269E+00
                                   -0.29053E+05 -0.17755E+04 -0.16725E+03
  _____________________________________________________________________________


     Iteration No.  1     Error (root-mean-square value)=  0.8036E-01

     Iteration No.  2     Error (root-mean-square value)=  0.4181E-02

     Iteration No.  3     Error (root-mean-square value)=  0.5379E-03

     S O L U T I O N :


     LOAD, FS................................= -0.7000E+01
  __________________________________________________

     Node    x-coord.      y-coord.     U      V  
  __________________________________________________

       1   0.00000E+00   0.00000E+00   0.00000E+00   0.00000E+00
       2   0.96031E+00  -0.71319E-01  -0.39695E-01  -0.71319E-01
       3   0.19324E+01  -0.21096E+00  -0.67623E-01  -0.21096E+00
       4   0.29153E+01  -0.38973E+00  -0.84672E-01  -0.38973E+00
       5   0.39053E+01  -0.58191E+00  -0.94705E-01  -0.58191E+00
       6   0.49049E+01  -0.76891E+00  -0.95071E-01  -0.76891E+00
       7   0.59122E+01  -0.93631E+00  -0.87779E-01  -0.93631E+00
       8   0.69273E+01  -0.10744E+01  -0.72661E-01  -0.10744E+01
       9   0.79481E+01  -0.11769E+01  -0.51900E-01  -0.11769E+01
      10   0.89730E+01  -0.12397E+01  -0.26953E-01  -0.12397E+01
      11   0.10000E+02  -0.12609E+01   0.00000E+00  -0.12609E+01
      12   0.00000E+00   0.50000E+00   0.00000E+00   0.00000E+00
      13   0.10088E+01   0.42744E+00   0.87542E-02  -0.72564E-01
      14   0.20091E+01   0.28286E+00   0.91285E-02  -0.21714E+00
      15   0.30030E+01   0.10213E+00   0.29565E-02  -0.39787E+00
      16   0.39942E+01  -0.91098E-01  -0.58290E-02  -0.59110E+00
      17   0.49865E+01  -0.27715E+00  -0.13534E-01  -0.77715E+00
      18   0.59820E+01  -0.44310E+00  -0.18016E-01  -0.94310E+00
      19   0.69817E+01  -0.57943E+00  -0.18320E-01  -0.10794E+01
      20   0.79853E+01  -0.68042E+00  -0.14720E-01  -0.11804E+01
      21   0.89919E+01  -0.74222E+00  -0.81462E-02  -0.12422E+01
      22   0.10000E+02  -0.76308E+00   0.00000E+00  -0.12631E+01
      23   0.00000E+00   0.10000E+01   0.00000E+00   0.00000E+00
      24   0.10505E+01   0.92121E+00   0.50475E-01  -0.78788E-01
      25   0.20805E+01   0.77599E+00   0.80549E-01  -0.22401E+00
      26   0.30884E+01   0.59296E+00   0.88390E-01  -0.40704E+00
      27   0.40839E+01   0.39975E+00   0.83876E-01  -0.60025E+00
      28   0.50707E+01   0.21495E+00   0.70668E-01  -0.78505E+00
      29   0.60553E+01   0.51025E-01   0.55321E-01  -0.94897E+00
      30   0.70395E+01  -0.83081E-01   0.39526E-01  -0.10831E+01
      31   0.80252E+01  -0.18225E+00   0.25210E-01  -0.11822E+01
      32   0.90122E+01  -0.24278E+00   0.12156E-01  -0.12428E+01
      33   0.10000E+02  -0.26326E+00   0.00000E+00  -0.12633E+01
  __________________________________________________

  _____________________________________________________________________________

            x-coord.     y-coord.     SigmaXX     SigmaYY     SigmaXY
                                        SXX         SYY          SXY
  _____________________________________________________________________________

    1     0.41460E+00  0.18988E+00 -0.14276E+06 -0.58426E+04 -0.24186E+05
                                   -0.12841E+06 -0.69922E+04 -0.26217E+05
    1     0.43887E+00  0.76527E+00  0.26134E+06  0.80714E+04 -0.43182E+05
                                    0.29842E+06  0.82536E+04 -0.39939E+05
    1     0.15494E+01  0.66624E-01 -0.51380E+05  0.64433E+04 -0.14022E+05
                                   -0.37542E+05  0.33522E+04 -0.17354E+05
    1     0.16230E+01  0.63767E+00  0.17040E+06  0.31184E+04 -0.44482E+05
                                    0.21465E+06 -0.25321E+04 -0.35194E+05
    2     0.23823E+01 -0.76442E-01  0.65077E+04  0.54099E+04 -0.16646E+05
                                    0.23408E+05  0.12917E+04 -0.16281E+05
    2     0.24753E+01  0.49211E+00  0.10855E+06  0.84195E+04 -0.34967E+05
                                    0.14533E+06  0.16126E+04 -0.27802E+05
    2     0.35239E+01 -0.29140E+00  0.50460E+05  0.72762E+04 -0.20420E+05
                                    0.72142E+05  0.23100E+04 -0.16866E+05
    2     0.36270E+01  0.27539E+00  0.65749E+05  0.52232E+04 -0.23106E+05
                                    0.90172E+05 -0.12500E+03 -0.17855E+05
    3     0.43631E+01 -0.45577E+00  0.82304E+05  0.67985E+04 -0.23008E+05
                                    0.10625E+06  0.18032E+04 -0.17138E+05
    3     0.44638E+01  0.11144E+00  0.34974E+05  0.33164E+04 -0.14953E+05
                                    0.49949E+05 -0.27738E+03 -0.12126E+05
    3     0.55170E+01 -0.65986E+00  0.10574E+06  0.51231E+04 -0.22792E+05
                                    0.12765E+06  0.11065E+04 -0.16105E+05
    3     0.56058E+01 -0.90757E-01  0.12808E+05  0.70325E+03 -0.77120E+04
                                    0.19548E+05 -0.10197E+04 -0.66111E+04
    4     0.63669E+01 -0.79038E+00  0.12268E+06  0.40279E+04 -0.20875E+05
                                    0.14131E+06  0.11661E+04 -0.14397E+05
    4     0.64423E+01 -0.21931E+00 -0.26246E+04 -0.40338E+03 -0.39990E+04
                                    0.48272E+03 -0.12234E+04 -0.39360E+04
    4     0.75345E+01 -0.92854E+00  0.13561E+06  0.18708E+04 -0.15741E+05
                                    0.14834E+06  0.67334E+03 -0.10704E+05
    4     0.75878E+01 -0.35503E+00 -0.14591E+05 -0.15224E+04 -0.13391E+04
                                   -0.13696E+05 -0.17447E+04 -0.17340E+04
    5     0.83932E+01 -0.99869E+00  0.14314E+06  0.93913E+03 -0.10795E+05
                                    0.15223E+06  0.74183E+03 -0.73142E+04
    5     0.84286E+01 -0.42377E+00 -0.21261E+05 -0.18043E+04 -0.36023E+03
                                   -0.20939E+05 -0.18515E+04 -0.79458E+03
    5     0.95690E+01 -0.10469E+01  0.14742E+06  0.42826E+02 -0.29716E+04
                                    0.15362E+06  0.59629E+03 -0.19999E+04
    5     0.95786E+01 -0.47097E+00 -0.25175E+05 -0.20547E+04 -0.51748E+02
                                   -0.25004E+05 -0.20449E+04 -0.19510E+03
  _____________________________________________________________________________


     Iteration No.  1     Error (root-mean-square value)=  0.6719E-01

     Iteration No.  2     Error (root-mean-square value)=  0.4658E-02

     Iteration No.  3     Error (root-mean-square value)=  0.6175E-03

     S O L U T I O N :


     LOAD, FS................................= -0.8000E+01
  __________________________________________________

     Node    x-coord.      y-coord.     U      V  
  __________________________________________________

       1   0.00000E+00   0.00000E+00   0.00000E+00   0.00000E+00
       2   0.95704E+00  -0.78726E-01  -0.42960E-01  -0.78726E-01
       3   0.19270E+01  -0.23118E+00  -0.73021E-01  -0.23118E+00
       4   0.29086E+01  -0.42493E+00  -0.91416E-01  -0.42493E+00
       5   0.38977E+01  -0.63198E+00  -0.10226E+00  -0.63198E+00
       6   0.48974E+01  -0.83234E+00  -0.10261E+00  -0.83234E+00
       7   0.59054E+01  -0.10108E+01  -0.94636E-01  -0.10108E+01
       8   0.69217E+01  -0.11575E+01  -0.78271E-01  -0.11575E+01
       9   0.79442E+01  -0.12659E+01  -0.55846E-01  -0.12659E+01
      10   0.89710E+01  -0.13323E+01  -0.28991E-01  -0.13323E+01
      11   0.10000E+02  -0.13546E+01   0.00000E+00  -0.13546E+01
      12   0.00000E+00   0.50000E+00   0.00000E+00   0.00000E+00
      13   0.10100E+01   0.41953E+00   0.10043E-01  -0.80467E-01
      14   0.20101E+01   0.26149E+00   0.10133E-01  -0.23851E+00
      15   0.30028E+01   0.65564E-01   0.27688E-02  -0.43444E+00
      16   0.39926E+01  -0.14251E+00  -0.73910E-02  -0.64251E+00
      17   0.49839E+01  -0.34166E+00  -0.16089E-01  -0.84166E+00
      18   0.59790E+01  -0.51840E+00  -0.20980E-01  -0.10184E+01
      19   0.69789E+01  -0.66301E+00  -0.21102E-01  -0.11630E+01
      20   0.79832E+01  -0.76983E+00  -0.16845E-01  -0.12698E+01
      21   0.89907E+01  -0.83507E+00  -0.92888E-02  -0.13351E+01
      22   0.10000E+02  -0.85706E+00   0.00000E+00  -0.13571E+01
      23   0.00000E+00   0.10000E+01   0.00000E+00   0.00000E+00
      24   0.10551E+01   0.91256E+00   0.55115E-01  -0.87441E-01
      25   0.20873E+01   0.75360E+00   0.87330E-01  -0.24640E+00
      26   0.30946E+01   0.55502E+00   0.94647E-01  -0.44498E+00
      27   0.40886E+01   0.34700E+00   0.88593E-01  -0.65300E+00
      28   0.50735E+01   0.14934E+00   0.73546E-01  -0.85066E+00
      29   0.60567E+01  -0.25082E-01   0.56731E-01  -0.10251E+01
      30   0.70400E+01  -0.16719E+00   0.39996E-01  -0.11672E+01
      31   0.80252E+01  -0.27196E+00   0.25218E-01  -0.12720E+01
      32   0.90121E+01  -0.33579E+00   0.12071E-01  -0.13358E+01
      33   0.10000E+02  -0.35737E+00   0.00000E+00  -0.13574E+01
  __________________________________________________

  _____________________________________________________________________________

            x-coord.     y-coord.     SigmaXX     SigmaYY     SigmaXY
                                        SXX         SYY          SXY
  _____________________________________________________________________________

    1     0.41412E+00  0.18735E+00 -0.15103E+06 -0.62755E+04 -0.27359E+05
                                   -0.13372E+06 -0.77587E+04 -0.29672E+05
    1     0.44058E+00  0.76242E+00  0.28578E+06  0.90990E+04 -0.49665E+05
                                    0.33196E+06  0.93375E+04 -0.45892E+05
    1     0.15474E+01  0.52130E-01 -0.48848E+05  0.76604E+04 -0.15801E+05
                                   -0.32103E+05  0.38639E+04 -0.19350E+05
    1     0.16273E+01  0.62212E+00  0.18404E+06  0.45769E+04 -0.50903E+05
                                    0.23891E+06 -0.23942E+04 -0.40046E+05
    2     0.23791E+01 -0.10355E+00  0.13781E+05  0.66725E+04 -0.19287E+05
                                    0.34867E+05  0.15927E+04 -0.18365E+05
    2     0.24794E+01  0.46356E+00  0.11685E+06  0.10214E+05 -0.39450E+05
                                    0.16174E+06  0.19617E+04 -0.31107E+05
    2     0.35193E+01 -0.33578E+00  0.60136E+05  0.87003E+04 -0.23698E+05
                                    0.87205E+05  0.26156E+04 -0.19108E+05
    2     0.36298E+01  0.22940E+00  0.71920E+05  0.62181E+04 -0.25872E+05
                                    0.10126E+06 -0.15940E+03 -0.19655E+05
    3     0.43578E+01 -0.51228E+00  0.93361E+05  0.81014E+04 -0.26523E+05
                                    0.12297E+06  0.20460E+04 -0.19391E+05
    3     0.44651E+01  0.53492E-01  0.40038E+05  0.39075E+04 -0.16751E+05
                                    0.57916E+05 -0.34594E+03 -0.13270E+05
    3     0.55115E+01 -0.73035E+00  0.11740E+06  0.60744E+04 -0.26048E+05
                                    0.14414E+06  0.12713E+04 -0.18165E+05
    3     0.56057E+01 -0.16232E+00  0.17535E+05  0.80988E+03 -0.87814E+04
                                    0.25602E+05 -0.12314E+04 -0.72208E+04
    4     0.63620E+01 -0.86910E+00  0.13466E+06  0.47230E+04 -0.23696E+05
                                    0.15714E+06  0.13338E+04 -0.16186E+05
    4     0.64416E+01 -0.29880E+00  0.20314E+04 -0.43657E+03 -0.47199E+04
                                    0.57999E+04 -0.14262E+04 -0.43351E+04
    4     0.75307E+01 -0.10155E+01  0.14792E+06  0.22266E+04 -0.17769E+05
                                    0.16312E+06  0.82513E+03 -0.12000E+05
    4     0.75868E+01 -0.44251E+00 -0.10071E+05 -0.17105E+04 -0.17560E+04
                                   -0.89716E+04 -0.19960E+04 -0.19513E+04
    5     0.83906E+01 -0.10897E+01  0.15553E+06  0.11155E+04 -0.12148E+05
                                    0.16631E+06  0.89066E+03 -0.81862E+04
    5     0.84278E+01 -0.51505E+00 -0.16699E+05 -0.20247E+04 -0.60547E+03
                                   -0.16341E+05 -0.20971E+04 -0.91677E+03
    5     0.95683E+01 -0.11406E+01  0.15992E+06  0.92761E+02 -0.33370E+04
                                    0.16725E+06  0.74556E+03 -0.22352E+04
    5     0.95784E+01 -0.56483E+00 -0.20666E+05 -0.23054E+04 -0.12001E+03
                                   -0.20542E+05 -0.23013E+04 -0.23124E+03
  _____________________________________________________________________________


     Iteration No.  1     Error (root-mean-square value)=  0.5757E-01

     Iteration No.  2     Error (root-mean-square value)=  0.4854E-02

     Iteration No.  3     Error (root-mean-square value)=  0.6733E-03

     S O L U T I O N :


     LOAD, FS................................= -0.9000E+01
  __________________________________________________

     Node    x-coord.      y-coord.     U      V  
  __________________________________________________

       1   0.00000E+00   0.00000E+00   0.00000E+00   0.00000E+00
       2   0.95398E+00  -0.85878E-01  -0.46022E-01  -0.85878E-01
       3   0.19219E+01  -0.25048E+00  -0.78072E-01  -0.25048E+00
       4   0.29023E+01  -0.45827E+00  -0.97724E-01  -0.45827E+00
       5   0.38907E+01  -0.67909E+00  -0.10931E+00  -0.67909E+00
       6   0.48904E+01  -0.89167E+00  -0.10962E+00  -0.89167E+00
       7   0.58990E+01  -0.10802E+01  -0.10099E+00  -0.10802E+01
       8   0.69165E+01  -0.12345E+01  -0.83454E-01  -0.12345E+01
       9   0.79405E+01  -0.13483E+01  -0.59483E-01  -0.13483E+01
      10   0.89691E+01  -0.14179E+01  -0.30866E-01  -0.14179E+01
      11   0.10000E+02  -0.14413E+01   0.00000E+00  -0.14413E+01
      12   0.00000E+00   0.50000E+00   0.00000E+00   0.00000E+00
      13   0.10113E+01   0.41186E+00   0.11302E-01  -0.88141E-01
      14   0.20110E+01   0.24102E+00   0.11042E-01  -0.25898E+00
      15   0.30025E+01   0.30873E-01   0.24645E-02  -0.46913E+00
      16   0.39910E+01  -0.19091E+00  -0.90389E-02  -0.69091E+00
      17   0.49813E+01  -0.40202E+00  -0.18670E-01  -0.90202E+00
      18   0.59761E+01  -0.58851E+00  -0.23911E-01  -0.10885E+01
      19   0.69762E+01  -0.74055E+00  -0.23818E-01  -0.12406E+01
      20   0.79811E+01  -0.85255E+00  -0.18902E-01  -0.13526E+01
      21   0.89896E+01  -0.92085E+00  -0.10390E-01  -0.14208E+01
      22   0.10000E+02  -0.94385E+00   0.00000E+00  -0.14439E+01
      23   0.00000E+00   0.10000E+01   0.00000E+00   0.00000E+00
      24   0.10595E+01   0.90417E+00   0.59483E-01  -0.95835E-01
      25   0.20936E+01   0.73211E+00   0.93636E-01  -0.26789E+00
      26   0.31003E+01   0.51897E+00   0.10028E+00  -0.48103E+00
      27   0.40927E+01   0.29729E+00   0.92654E-01  -0.70271E+00
      28   0.50758E+01   0.87913E-01   0.75843E-01  -0.91209E+00
      29   0.60577E+01  -0.95958E-01   0.57682E-01  -0.10960E+01
      30   0.70401E+01  -0.24522E+00   0.40143E-01  -0.12452E+01
      31   0.80250E+01  -0.35498E+00   0.25027E-01  -0.13550E+01
      32   0.90119E+01  -0.42174E+00   0.11893E-01  -0.14217E+01
      33   0.10000E+02  -0.44428E+00   0.00000E+00  -0.14443E+01
  __________________________________________________

  _____________________________________________________________________________

            x-coord.     y-coord.     SigmaXX     SigmaYY     SigmaXY
                                        SXX         SYY          SXY
  _____________________________________________________________________________

    1     0.41370E+00  0.18487E+00 -0.15836E+06 -0.66546E+04 -0.30534E+05
                                   -0.13792E+06 -0.85055E+04 -0.33112E+05
    1     0.44221E+00  0.75961E+00  0.30859E+06  0.10146E+05 -0.56149E+05
                                    0.36457E+06  0.10453E+05 -0.51864E+05
    1     0.15455E+01  0.38208E-01 -0.45719E+05  0.89556E+04 -0.17624E+05
                                   -0.25838E+05  0.44031E+04 -0.21323E+05
    1     0.16313E+01  0.60715E+00  0.19635E+06  0.62032E+04 -0.57232E+05
                                    0.26256E+06 -0.21628E+04 -0.44829E+05
    2     0.23761E+01 -0.12937E+00  0.21205E+05  0.80242E+04 -0.22031E+05
                                    0.46911E+05  0.19077E+04 -0.20465E+05
    2     0.24832E+01  0.43631E+00  0.12430E+06  0.12076E+05 -0.43778E+05
                                    0.17765E+06  0.23276E+04 -0.34274E+05
    2     0.35149E+01 -0.37766E+00  0.69544E+05  0.10182E+05 -0.27035E+05
                                    0.10245E+06  0.29145E+04 -0.21348E+05
    2     0.36321E+01  0.18594E+00  0.77679E+05  0.72221E+04 -0.28552E+05
                                    0.11209E+06 -0.20506E+03 -0.21356E+05
    3     0.43528E+01 -0.56532E+00  0.10388E+06  0.94461E+04 -0.30037E+05
                                    0.13952E+06  0.22908E+04 -0.21623E+05
    3     0.44661E+01 -0.92705E-03  0.44972E+05  0.45057E+04 -0.18534E+05
                                    0.65863E+05 -0.42293E+03 -0.14370E+05
    3     0.55064E+01 -0.79610E+00  0.12836E+06  0.70463E+04 -0.29253E+05
                                    0.16012E+06  0.14441E+04 -0.20189E+05
    3     0.56053E+01 -0.22909E+00  0.22307E+05  0.92623E+03 -0.98976E+04
                                    0.31797E+05 -0.14498E+04 -0.78363E+04
    4     0.63573E+01 -0.94226E+00  0.14583E+06  0.54266E+04 -0.26446E+05
                                    0.17227E+06  0.15088E+04 -0.17933E+05
    4     0.64406E+01 -0.37269E+00  0.68378E+04 -0.45589E+03 -0.55100E+04
                                    0.11353E+05 -0.16309E+04 -0.47610E+04
    4     0.75271E+01 -0.10961E+01  0.15937E+06  0.25910E+04 -0.19731E+05
                                    0.17709E+06  0.98850E+03 -0.13260E+05
    4     0.75857E+01 -0.52353E+00 -0.53404E+04 -0.18829E+04 -0.22372E+04
                                   -0.39826E+04 -0.22409E+04 -0.22006E+04
    5     0.83882E+01 -0.11738E+01  0.16702E+06  0.12987E+04 -0.13454E+05
                                    0.17952E+06  0.10484E+04 -0.90326E+04
    5     0.84269E+01 -0.59945E+00 -0.11901E+05 -0.22333E+04 -0.89833E+03
                                   -0.11475E+05 -0.23347E+04 -0.10640E+04
    5     0.95676E+01 -0.12271E+01  0.17153E+06  0.15179E+03 -0.36887E+04
                                    0.17998E+06  0.90422E+03 -0.24634E+04
    5     0.95781E+01 -0.65152E+00 -0.15906E+05 -0.25457E+04 -0.20166E+03
                                   -0.15819E+05 -0.25464E+04 -0.27458E+03
  _____________________________________________________________________________


     Iteration No.  1     Error (root-mean-square value)=  0.5026E-01

     Iteration No.  2     Error (root-mean-square value)=  0.4905E-02

     Iteration No.  3     Error (root-mean-square value)=  0.7143E-03

     S O L U T I O N :


     LOAD, FS................................= -0.1000E+02
  __________________________________________________

     Node    x-coord.      y-coord.     U      V  
  __________________________________________________

       1   0.00000E+00   0.00000E+00   0.00000E+00   0.00000E+00
       2   0.95108E+00  -0.92816E-01  -0.48916E-01  -0.92816E-01
       3   0.19172E+01  -0.26903E+00  -0.82838E-01  -0.26903E+00
       4   0.28963E+01  -0.49007E+00  -0.10368E+00  -0.49007E+00
       5   0.38841E+01  -0.72376E+00  -0.11595E+00  -0.72376E+00
       6   0.48838E+01  -0.94764E+00  -0.11621E+00  -0.94764E+00
       7   0.58931E+01  -0.11453E+01  -0.10694E+00  -0.11453E+01
       8   0.69117E+01  -0.13067E+01  -0.88291E-01  -0.13067E+01
       9   0.79371E+01  -0.14254E+01  -0.62868E-01  -0.14254E+01
      10   0.89674E+01  -0.14978E+01  -0.32609E-01  -0.14978E+01
      11   0.10000E+02  -0.15221E+01   0.00000E+00  -0.15221E+01
      12   0.00000E+00   0.50000E+00   0.00000E+00   0.00000E+00
      13   0.10125E+01   0.40438E+00   0.12533E-01  -0.95625E-01
      14   0.20119E+01   0.22130E+00   0.11866E-01  -0.27870E+00
      15   0.30021E+01  -0.22648E-02   0.20600E-02  -0.50226E+00
      16   0.39892E+01  -0.23683E+00  -0.10756E-01  -0.73683E+00
      17   0.49787E+01  -0.45896E+00  -0.21264E-01  -0.95896E+00
      18   0.59732E+01  -0.65437E+00  -0.26805E-01  -0.11544E+01
      19   0.69735E+01  -0.81316E+00  -0.26471E-01  -0.13132E+01
      20   0.79791E+01  -0.92986E+00  -0.20897E-01  -0.14299E+01
      21   0.89885E+01  -0.10009E+01  -0.11455E-01  -0.15009E+01
      22   0.10000E+02  -0.10248E+01   0.00000E+00  -0.15248E+01
      23   0.00000E+00   0.10000E+01   0.00000E+00   0.00000E+00
      24   0.10636E+01   0.89599E+00   0.63623E-01  -0.10401E+00
      25   0.20995E+01   0.71138E+00   0.99547E-01  -0.28862E+00
      26   0.31054E+01   0.48449E+00   0.10540E+00  -0.51551E+00
      27   0.40962E+01   0.25010E+00   0.96179E-01  -0.74990E+00
      28   0.50777E+01   0.29940E-01   0.77676E-01  -0.97006E+00
      29   0.60583E+01  -0.16255E+00   0.58275E-01  -0.11626E+01
      30   0.70400E+01  -0.31830E+00   0.40047E-01  -0.13183E+01
      31   0.80247E+01  -0.43257E+00   0.24689E-01  -0.14326E+01
      32   0.90116E+01  -0.50196E+00   0.11647E-01  -0.15020E+01
      33   0.10000E+02  -0.52538E+00   0.00000E+00  -0.15254E+01
  __________________________________________________

  _____________________________________________________________________________

            x-coord.     y-coord.     SigmaXX     SigmaYY     SigmaXY
                                        SXX         SYY          SXY
  _____________________________________________________________________________

    1     0.41331E+00  0.18243E+00 -0.16491E+06 -0.69840E+04 -0.33714E+05
                                   -0.14114E+06 -0.92349E+04 -0.36543E+05
    1     0.44378E+00  0.75685E+00  0.32998E+06  0.11218E+05 -0.62628E+05
                                    0.39644E+06  0.11605E+05 -0.57851E+05
    1     0.15438E+01  0.24761E-01 -0.42127E+05  0.10327E+05 -0.19489E+05
                                   -0.18875E+05  0.49692E+04 -0.23278E+05
    1     0.16351E+01  0.59265E+00  0.20753E+06  0.79825E+04 -0.63467E+05
                                    0.28575E+06 -0.18447E+04 -0.49548E+05
    2     0.23732E+01 -0.15411E+00  0.28699E+05  0.94606E+04 -0.24866E+05
                                    0.59459E+05  0.22358E+04 -0.22581E+05
    2     0.24866E+01  0.41014E+00  0.13105E+06  0.13995E+05 -0.47961E+05
                                    0.19317E+06  0.27080E+04 -0.37314E+05
    2     0.35107E+01 -0.41749E+00  0.78669E+05  0.11717E+05 -0.30418E+05
                                    0.11785E+06  0.32088E+04 -0.23588E+05
    2     0.36341E+01  0.14457E+00  0.83103E+05  0.82331E+04 -0.31161E+05
                                    0.12273E+06 -0.26117E+03 -0.22974E+05
    3     0.43479E+01 -0.61549E+00  0.11391E+06  0.10828E+05 -0.33543E+05
                                    0.15590E+06  0.25396E+04 -0.23835E+05
    3     0.44667E+01 -0.52437E-01  0.49799E+05  0.51126E+04 -0.20312E+05
                                    0.73812E+05 -0.50677E+03 -0.15437E+05
    3     0.55015E+01 -0.85797E+00  0.13871E+06  0.80361E+04 -0.32408E+05
                                    0.17567E+06  0.16260E+04 -0.22180E+05
    3     0.56046E+01 -0.29193E+00  0.27100E+05  0.10549E+04 -0.11059E+05
                                    0.38112E+05 -0.16725E+04 -0.84622E+04
    4     0.63528E+01 -0.10109E+01  0.15631E+06  0.61379E+04 -0.29133E+05
                                    0.18680E+06  0.16917E+04 -0.19645E+05
    4     0.64395E+01 -0.44201E+00  0.11738E+05 -0.46045E+03 -0.63618E+04
                                    0.17086E+05 -0.18361E+04 -0.52137E+04
    4     0.75238E+01 -0.11715E+01  0.17010E+06  0.29629E+04 -0.21636E+05
                                    0.19038E+06  0.11623E+04 -0.14491E+05
    4     0.75845E+01 -0.59931E+00 -0.47778E+03 -0.20404E+04 -0.27735E+04
                                    0.11912E+04 -0.24793E+04 -0.24791E+04
    5     0.83860E+01 -0.12524E+01  0.17778E+06  0.14881E+04 -0.14719E+05
                                    0.19201E+06  0.12140E+04 -0.98587E+04
    5     0.84260E+01 -0.67828E+00 -0.69587E+04 -0.24316E+04 -0.12311E+04
                                   -0.64356E+04 -0.25651E+04 -0.12335E+04
    5     0.95670E+01 -0.13078E+01  0.18239E+06  0.21827E+03 -0.40292E+04
                                    0.19198E+06  0.10705E+04 -0.26860E+04
    5     0.95778E+01 -0.73242E+00 -0.10994E+05 -0.27774E+04 -0.29436E+03
                                   -0.10931E+05 -0.27817E+04 -0.32416E+03
  _____________________________________________________________________________


     Iteration No.  1     Error (root-mean-square value)=  0.4453E-01

     Iteration No.  2     Error (root-mean-square value)=  0.4880E-02

     Iteration No.  3     Error (root-mean-square value)=  0.7454E-03

     S O L U T I O N :


     LOAD, FS................................= -0.1100E+02
  __________________________________________________

     Node    x-coord.      y-coord.     U      V  
  __________________________________________________

       1   0.00000E+00   0.00000E+00   0.00000E+00   0.00000E+00
       2   0.94833E+00  -0.99575E-01  -0.51666E-01  -0.99575E-01
       3   0.19126E+01  -0.28694E+00  -0.87365E-01  -0.28694E+00
       4   0.28907E+01  -0.52058E+00  -0.10933E+00  -0.52058E+00
       5   0.38778E+01  -0.76637E+00  -0.12224E+00  -0.76637E+00
       6   0.48776E+01  -0.10008E+01  -0.12244E+00  -0.10008E+01
       7   0.58875E+01  -0.12070E+01  -0.11254E+00  -0.12070E+01
       8   0.69072E+01  -0.13748E+01  -0.92840E-01  -0.13748E+01
       9   0.79340E+01  -0.14979E+01  -0.66046E-01  -0.14979E+01
      10   0.89658E+01  -0.15729E+01  -0.34244E-01  -0.15729E+01
      11   0.10000E+02  -0.15981E+01   0.00000E+00  -0.15981E+01
      12   0.00000E+00   0.50000E+00   0.00000E+00   0.00000E+00
      13   0.10137E+01   0.39705E+00   0.13740E-01  -0.10295E+00
      14   0.20126E+01   0.20221E+00   0.12613E-01  -0.29779E+00
      15   0.30016E+01  -0.34090E-01   0.15687E-02  -0.53409E+00
      16   0.39875E+01  -0.28065E+00  -0.12528E-01  -0.78065E+00
      17   0.49761E+01  -0.51304E+00  -0.23863E-01  -0.10130E+01
      18   0.59703E+01  -0.71668E+00  -0.29660E-01  -0.12167E+01
      19   0.69709E+01  -0.88168E+00  -0.29064E-01  -0.13817E+01
      20   0.79772E+01  -0.10027E+01  -0.22836E-01  -0.15027E+01
      21   0.89875E+01  -0.10762E+01  -0.12486E-01  -0.15762E+01
      22   0.10000E+02  -0.11010E+01   0.00000E+00  -0.16010E+01
      23   0.00000E+00   0.10000E+01   0.00000E+00   0.00000E+00
      24   0.10676E+01   0.88799E+00   0.67571E-01  -0.11201E+00
      25   0.21051E+01   0.69130E+00   0.10513E+00  -0.30870E+00
      26   0.31101E+01   0.45133E+00   0.11009E+00  -0.54867E+00
      27   0.40993E+01   0.20502E+00   0.99257E-01  -0.79498E+00
      28   0.50791E+01  -0.25135E-01   0.79129E-01  -0.10251E+01
      29   0.60586E+01  -0.22557E+00   0.58584E-01  -0.12256E+01
      30   0.70398E+01  -0.38727E+00   0.39763E-01  -0.13873E+01
      31   0.80242E+01  -0.50565E+00   0.24240E-01  -0.15057E+01
      32   0.90114E+01  -0.57745E+00   0.11350E-01  -0.15775E+01
      33   0.10000E+02  -0.60167E+00   0.00000E+00  -0.16017E+01
  __________________________________________________

  _____________________________________________________________________________

            x-coord.     y-coord.     SigmaXX     SigmaYY     SigmaXY
                                        SXX         SYY          SXY
  _____________________________________________________________________________

    1     0.41297E+00  0.18002E+00 -0.17080E+06 -0.72665E+04 -0.36904E+05
                                   -0.14353E+06 -0.99485E+04 -0.39966E+05
    1     0.44530E+00  0.75412E+00  0.35014E+06  0.12317E+05 -0.69097E+05
                                    0.42773E+06  0.12799E+05 -0.63852E+05
    1     0.15422E+01  0.11714E-01 -0.38169E+05  0.11772E+05 -0.21396E+05
                                   -0.11307E+05  0.55618E+04 -0.25220E+05
    1     0.16386E+01  0.57856E+00  0.21774E+06  0.99025E+04 -0.69608E+05
                                    0.30860E+06 -0.14451E+04 -0.54204E+05
    2     0.23704E+01 -0.17795E+00  0.36208E+05  0.10978E+05 -0.27783E+05
                                    0.72453E+05  0.25764E+04 -0.24713E+05
    2     0.24898E+01  0.38488E+00  0.13721E+06  0.15961E+05 -0.52012E+05
                                    0.20838E+06  0.31008E+04 -0.40238E+05
    2     0.35066E+01 -0.45559E+00  0.87510E+05  0.13301E+05 -0.33837E+05
                                    0.13337E+06  0.35005E+04 -0.25825E+05
    2     0.36358E+01  0.10496E+00  0.88252E+05  0.92501E+04 -0.33713E+05
                                    0.13321E+06 -0.32678E+03 -0.24521E+05
    3     0.43433E+01 -0.66327E+00  0.12347E+06  0.12244E+05 -0.37035E+05
                                    0.17212E+06  0.27945E+04 -0.26030E+05
    3     0.44671E+01 -0.10150E+00  0.54537E+05  0.57296E+04 -0.22090E+05
                                    0.81783E+05 -0.59605E+03 -0.16480E+05
    3     0.54968E+01 -0.91660E+00  0.14852E+06  0.90423E+04 -0.35516E+05
                                    0.19083E+06  0.18179E+04 -0.24145E+05
    3     0.56038E+01 -0.35149E+00  0.31899E+05  0.11977E+04 -0.12265E+05
                                    0.44535E+05 -0.18977E+04 -0.91014E+04
    4     0.63486E+01 -0.10757E+01  0.16619E+06  0.68566E+04 -0.31762E+05
                                    0.20081E+06  0.18831E+04 -0.21328E+05
    4     0.64383E+01 -0.50751E+00  0.16693E+05 -0.44978E+03 -0.72691E+04
                                    0.22961E+05 -0.20409E+04 -0.56922E+04
    4     0.75206E+01 -0.12425E+01  0.18021E+06  0.33414E+04 -0.23494E+05
                                    0.20307E+06  0.13455E+04 -0.15698E+05
    4     0.75833E+01 -0.67073E+00  0.44628E+04 -0.21839E+04 -0.33573E+04
                                    0.64956E+04 -0.27116E+04 -0.27839E+04
    5     0.83838E+01 -0.13263E+01  0.18792E+06  0.16828E+04 -0.15950E+05
                                    0.20389E+06  0.13864E+04 -0.10669E+05
    5     0.84251E+01 -0.75249E+00 -0.19348E+04 -0.26204E+04 -0.15977E+04
                                   -0.12829E+04 -0.27887E+04 -0.14227E+04
    5     0.95664E+01 -0.13837E+01  0.19264E+06  0.29093E+03 -0.43603E+04
                                    0.20336E+06  0.12430E+04 -0.29042E+04
    5     0.95776E+01 -0.80851E+00 -0.59972E+04 -0.30019E+04 -0.39626E+03
                                   -0.59436E+04 -0.30084E+04 -0.37917E+03
  _____________________________________________________________________________


     Iteration No.  1     Error (root-mean-square value)=  0.3993E-01

     Iteration No.  2     Error (root-mean-square value)=  0.4814E-02

     Iteration No.  3     Error (root-mean-square value)=  0.7698E-03

     S O L U T I O N :


     LOAD, FS................................= -0.1200E+02
  __________________________________________________

     Node    x-coord.      y-coord.     U      V  
  __________________________________________________

       1   0.00000E+00   0.00000E+00   0.00000E+00   0.00000E+00
       2   0.94571E+00  -0.10618E+00  -0.54293E-01  -0.10618E+00
       3   0.19083E+01  -0.30430E+00  -0.91687E-01  -0.30430E+00
       4   0.28853E+01  -0.54997E+00  -0.11472E+00  -0.54997E+00
       5   0.38718E+01  -0.80723E+00  -0.12824E+00  -0.80723E+00
       6   0.48716E+01  -0.10515E+01  -0.12836E+00  -0.10515E+01
       7   0.58821E+01  -0.12657E+01  -0.11786E+00  -0.12657E+01
       8   0.69029E+01  -0.14394E+01  -0.97145E-01  -0.14394E+01
       9   0.79310E+01  -0.15667E+01  -0.69049E-01  -0.15667E+01
      10   0.89642E+01  -0.16441E+01  -0.35788E-01  -0.16441E+01
      11   0.10000E+02  -0.16700E+01   0.00000E+00  -0.16700E+01
      12   0.00000E+00   0.50000E+00   0.00000E+00   0.00000E+00
      13   0.10149E+01   0.38986E+00   0.14925E-01  -0.11014E+00
      14   0.20133E+01   0.18367E+00   0.13293E-01  -0.31633E+00
      15   0.30010E+01  -0.64789E-01   0.10018E-02  -0.56479E+00
      16   0.39857E+01  -0.32269E+00  -0.14344E-01  -0.82269E+00
      17   0.49735E+01  -0.56468E+00  -0.26460E-01  -0.10647E+01
      18   0.59675E+01  -0.77598E+00  -0.32474E-01  -0.12760E+01
      19   0.69684E+01  -0.94673E+00  -0.31598E-01  -0.14467E+01
      20   0.79753E+01  -0.10717E+01  -0.24723E-01  -0.15717E+01
      21   0.89865E+01  -0.11476E+01  -0.13487E-01  -0.16476E+01
      22   0.10000E+02  -0.11731E+01   0.00000E+00  -0.16731E+01
      23   0.00000E+00   0.10000E+01   0.00000E+00   0.00000E+00
      24   0.10714E+01   0.88016E+00   0.71352E-01  -0.11984E+00
      25   0.21104E+01   0.67175E+00   0.11042E+00  -0.32825E+00
      26   0.31144E+01   0.41932E+00   0.11439E+00  -0.58068E+00
      27   0.41020E+01   0.16177E+00   0.10196E+00  -0.83823E+00
      28   0.50803E+01  -0.77738E-01   0.80270E-01  -0.10777E+01
      29   0.60587E+01  -0.28555E+00   0.58665E-01  -0.12855E+01
      30   0.70393E+01  -0.45275E+00   0.39331E-01  -0.14528E+01
      31   0.80237E+01  -0.57494E+00   0.23708E-01  -0.15749E+01
      32   0.90110E+01  -0.64896E+00   0.11017E-01  -0.16490E+01
      33   0.10000E+02  -0.67392E+00   0.00000E+00  -0.16739E+01
  __________________________________________________

  _____________________________________________________________________________

            x-coord.     y-coord.     SigmaXX     SigmaYY     SigmaXY
                                        SXX         SYY          SXY
  _____________________________________________________________________________

    1     0.41265E+00  0.17764E+00 -0.17613E+06 -0.75043E+04 -0.40106E+05
                                   -0.14515E+06 -0.10647E+05 -0.43385E+05
    1     0.44678E+00  0.75142E+00  0.36920E+06  0.13447E+05 -0.75553E+05
                                    0.45856E+06  0.14039E+05 -0.69864E+05
    1     0.15406E+01 -0.98908E-03 -0.33917E+05  0.13289E+05 -0.23344E+05
                                   -0.32024E+04  0.61801E+04 -0.27152E+05
    1     0.16421E+01  0.56481E+00  0.22710E+06  0.11953E+05 -0.75656E+05
                                    0.33119E+06 -0.96900E+03 -0.58801E+05
    2     0.23677E+01 -0.20101E+00  0.43694E+05  0.12572E+05 -0.30775E+05
                                    0.85851E+05  0.29291E+04 -0.26860E+05
    2     0.24928E+01  0.36041E+00  0.14288E+06  0.17970E+05 -0.55939E+05
                                    0.22333E+06  0.35043E+04 -0.43054E+05
    2     0.35027E+01 -0.49220E+00  0.96068E+05  0.14931E+05 -0.37284E+05
                                    0.14899E+06  0.37916E+04 -0.28060E+05
    2     0.36372E+01  0.66872E-01  0.93170E+05  0.10273E+05 -0.36216E+05
                                    0.14359E+06 -0.40093E+03 -0.26007E+05
    3     0.43388E+01 -0.70898E+00  0.13261E+06  0.13690E+05 -0.40509E+05
                                    0.18819E+06  0.30568E+04 -0.28207E+05
    3     0.44672E+01 -0.14847E+00  0.59197E+05  0.63581E+04 -0.23873E+05
                                    0.89790E+05 -0.68946E+03 -0.17506E+05
    3     0.54924E+01 -0.97247E+00  0.15783E+06  0.10063E+05 -0.38579E+05
                                    0.20565E+06  0.20204E+04 -0.26084E+05
    3     0.56028E+01 -0.40824E+00  0.36692E+05  0.13561E+04 -0.13512E+05
                                    0.51054E+05 -0.21240E+04 -0.97556E+04
    4     0.63446E+01 -0.11374E+01  0.17555E+06  0.75823E+04 -0.34339E+05
                                    0.21438E+06  0.20830E+04 -0.22985E+05
    4     0.64370E+01 -0.56978E+00  0.21676E+05 -0.42368E+03 -0.82262E+04
                                    0.28949E+05 -0.22443E+04 -0.61955E+04
    4     0.75175E+01 -0.13099E+01  0.18979E+06  0.37261E+04 -0.25309E+05
                                    0.21527E+06  0.15374E+04 -0.16886E+05
    4     0.75820E+01 -0.73848E+00  0.94443E+04 -0.23143E+04 -0.39822E+04
                                    0.11892E+05 -0.29378E+04 -0.31126E+04
    5     0.83818E+01 -0.13964E+01  0.19753E+06  0.18824E+04 -0.17152E+05
                                    0.21525E+06  0.15650E+04 -0.11465E+05
    5     0.84242E+01 -0.82280E+00  0.31286E+04 -0.28007E+04 -0.19932E+04
                                    0.39400E+04 -0.30061E+04 -0.16293E+04
    5     0.95658E+01 -0.14556E+01  0.20235E+06  0.36875E+03 -0.46835E+04
                                    0.21422E+06  0.14208E+04 -0.31191E+04
    5     0.95773E+01 -0.88057E+00 -0.96049E+03 -0.32202E+04 -0.50588E+03
                                   -0.90171E+03 -0.32275E+04 -0.43890E+03
  _____________________________________________________________________________


     Iteration No.  1     Error (root-mean-square value)=  0.3617E-01

     Iteration No.  2     Error (root-mean-square value)=  0.4727E-02

     Iteration No.  3     Error (root-mean-square value)=  0.7892E-03

     S O L U T I O N :


     LOAD, FS................................= -0.1300E+02
  __________________________________________________

     Node    x-coord.      y-coord.     U      V  
  __________________________________________________

       1   0.00000E+00   0.00000E+00   0.00000E+00   0.00000E+00
       2   0.94319E+00  -0.11265E+00  -0.56810E-01  -0.11265E+00
       3   0.19042E+01  -0.32118E+00  -0.95831E-01  -0.32118E+00
       4   0.28801E+01  -0.57840E+00  -0.11990E+00  -0.57840E+00
       5   0.38660E+01  -0.84657E+00  -0.13399E+00  -0.84657E+00
       6   0.48660E+01  -0.11002E+01  -0.13402E+00  -0.11002E+01
       7   0.58771E+01  -0.13218E+01  -0.12292E+00  -0.13218E+01
       8   0.68988E+01  -0.15011E+01  -0.10124E+00  -0.15011E+01
       9   0.79281E+01  -0.16322E+01  -0.71903E-01  -0.16322E+01
      10   0.89627E+01  -0.17119E+01  -0.37254E-01  -0.17119E+01
      11   0.10000E+02  -0.17386E+01   0.00000E+00  -0.17386E+01
      12   0.00000E+00   0.50000E+00   0.00000E+00   0.00000E+00
      13   0.10161E+01   0.38279E+00   0.16090E-01  -0.11721E+00
      14   0.20139E+01   0.16561E+00   0.13911E-01  -0.33439E+00
      15   0.30004E+01  -0.94507E-01   0.36855E-03  -0.59451E+00
      16   0.39838E+01  -0.36317E+00  -0.16196E-01  -0.86317E+00
      17   0.49709E+01  -0.61421E+00  -0.29051E-01  -0.11142E+01
      18   0.59648E+01  -0.83269E+00  -0.35247E-01  -0.13327E+01
      19   0.69659E+01  -0.10088E+01  -0.34079E-01  -0.15088E+01
      20   0.79734E+01  -0.11375E+01  -0.26561E-01  -0.16375E+01
      21   0.89855E+01  -0.12155E+01  -0.14459E-01  -0.17155E+01
      22   0.10000E+02  -0.12418E+01   0.00000E+00  -0.17418E+01
      23   0.00000E+00   0.10000E+01   0.00000E+00   0.00000E+00
      24   0.10750E+01   0.87247E+00   0.74989E-01  -0.12753E+00
      25   0.21155E+01   0.65269E+00   0.11546E+00  -0.34731E+00
      26   0.31184E+01   0.38830E+00   0.11838E+00  -0.61170E+00
      27   0.41043E+01   0.12011E+00   0.10433E+00  -0.87989E+00
      28   0.50811E+01  -0.12820E+00   0.81150E-01  -0.11282E+01
      29   0.60586E+01  -0.34291E+00   0.58560E-01  -0.13429E+01
      30   0.70388E+01  -0.51525E+00   0.38783E-01  -0.15152E+01
      31   0.80231E+01  -0.64098E+00   0.23111E-01  -0.16410E+01
      32   0.90107E+01  -0.71707E+00   0.10655E-01  -0.17171E+01
      33   0.10000E+02  -0.74271E+00   0.00000E+00  -0.17427E+01
  __________________________________________________

  _____________________________________________________________________________

            x-coord.     y-coord.     SigmaXX     SigmaYY     SigmaXY
                                        SXX         SYY          SXY
  _____________________________________________________________________________

    1     0.41237E+00  0.17528E+00 -0.18096E+06 -0.76988E+04 -0.43323E+05
                                   -0.14608E+06 -0.11332E+05 -0.46802E+05
    1     0.44821E+00  0.74874E+00  0.38726E+06  0.14607E+05 -0.81991E+05
                                    0.48902E+06  0.15326E+05 -0.75886E+05
    1     0.15391E+01 -0.13393E-01 -0.29426E+05  0.14876E+05 -0.25330E+05
                                    0.53871E+04  0.68234E+04 -0.29075E+05
    1     0.16454E+01  0.55136E+00  0.23571E+06  0.14124E+05 -0.81611E+05
                                    0.35359E+06 -0.42035E+03 -0.63341E+05
    2     0.23650E+01 -0.22339E+00  0.51130E+05  0.14240E+05 -0.33835E+05
                                    0.99621E+05  0.32938E+04 -0.29022E+05
    2     0.24955E+01  0.33662E+00  0.14811E+06  0.20015E+05 -0.59751E+05
                                    0.23809E+06  0.39172E+04 -0.45770E+05
    2     0.34989E+01 -0.52752E+00  0.10435E+06  0.16603E+05 -0.40751E+05
                                    0.16471E+06  0.40837E+04 -0.30290E+05
    2     0.36384E+01  0.30095E-01  0.97893E+05  0.11301E+05 -0.38679E+05
                                    0.15390E+06 -0.48263E+03 -0.27440E+05
    3     0.43345E+01 -0.75292E+00  0.14136E+06  0.15165E+05 -0.43961E+05
                                    0.20412E+06  0.33277E+04 -0.30368E+05
    3     0.44672E+01 -0.19362E+00  0.63790E+05  0.69995E+04 -0.25666E+05
                                    0.97845E+05 -0.78582E+03 -0.18519E+05
    3     0.54880E+01 -0.10260E+01  0.16670E+06  0.11098E+05 -0.41597E+05
                                    0.22015E+06  0.22340E+04 -0.28002E+05
    3     0.56018E+01 -0.46258E+00  0.41472E+05  0.15310E+04 -0.14798E+05
                                    0.57664E+05 -0.23500E+04 -0.10426E+05
    4     0.63407E+01 -0.11963E+01  0.18445E+06  0.83149E+04 -0.36869E+05
                                    0.22754E+06  0.22917E+04 -0.24621E+05
    4     0.64356E+01 -0.62927E+00  0.26668E+05 -0.38217E+03 -0.92281E+04
                                    0.35030E+05 -0.24459E+04 -0.67224E+04
    4     0.75146E+01 -0.13742E+01  0.19891E+06  0.41165E+04 -0.27087E+05
                                    0.22702E+06  0.17372E+04 -0.18059E+05
    4     0.75807E+01 -0.80308E+00  0.14440E+05 -0.24324E+04 -0.46429E+04
                                    0.17353E+05 -0.31584E+04 -0.34629E+04
    5     0.83798E+01 -0.14632E+01  0.20668E+06  0.20863E+04 -0.18329E+05
                                    0.22616E+06  0.17492E+04 -0.12252E+05
    5     0.84232E+01 -0.88980E+00  0.82018E+04 -0.29733E+04 -0.24133E+04
                                    0.92025E+04 -0.32178E+04 -0.18514E+04
    5     0.95652E+01 -0.15241E+01  0.21161E+06  0.45092E+03 -0.50000E+04
                                    0.22462E+06  0.16028E+04 -0.33312E+04
    5     0.95770E+01 -0.94919E+00  0.40845E+04 -0.34333E+04 -0.62204E+03
                                    0.41634E+04 -0.34399E+04 -0.50276E+03
  _____________________________________________________________________________


     Iteration No.  1     Error (root-mean-square value)=  0.3303E-01

     Iteration No.  2     Error (root-mean-square value)=  0.4629E-02

     Iteration No.  3     Error (root-mean-square value)=  0.8050E-03

     S O L U T I O N :


     LOAD, FS................................= -0.1400E+02
  __________________________________________________

     Node    x-coord.      y-coord.     U      V  
  __________________________________________________

       1   0.00000E+00   0.00000E+00   0.00000E+00   0.00000E+00
       2   0.94077E+00  -0.11900E+00  -0.59231E-01  -0.11900E+00
       3   0.19002E+01  -0.33764E+00  -0.99820E-01  -0.33764E+00
       4   0.28751E+01  -0.60599E+00  -0.12488E+00  -0.60599E+00
       5   0.38605E+01  -0.88457E+00  -0.13951E+00  -0.88457E+00
       6   0.48606E+01  -0.11471E+01  -0.13945E+00  -0.11471E+01
       7   0.58722E+01  -0.13757E+01  -0.12777E+00  -0.13757E+01
       8   0.68948E+01  -0.15603E+01  -0.10516E+00  -0.15603E+01
       9   0.79254E+01  -0.16950E+01  -0.74628E-01  -0.16950E+01
      10   0.89613E+01  -0.17768E+01  -0.38653E-01  -0.17768E+01
      11   0.10000E+02  -0.18041E+01   0.00000E+00  -0.18041E+01
      12   0.00000E+00   0.50000E+00   0.00000E+00   0.00000E+00
      13   0.10172E+01   0.37583E+00   0.17239E-01  -0.12417E+00
      14   0.20145E+01   0.14797E+00   0.14473E-01  -0.35203E+00
      15   0.29997E+01  -0.12336E+00  -0.32298E-03  -0.62336E+00
      16   0.39819E+01  -0.40228E+00  -0.18076E-01  -0.90228E+00
      17   0.49684E+01  -0.66190E+00  -0.31630E-01  -0.11619E+01
      18   0.59620E+01  -0.88715E+00  -0.37979E-01  -0.13871E+01
      19   0.69635E+01  -0.10683E+01  -0.36507E-01  -0.15683E+01
      20   0.79716E+01  -0.12005E+01  -0.28353E-01  -0.17005E+01
      21   0.89846E+01  -0.12806E+01  -0.15406E-01  -0.17806E+01
      22   0.10000E+02  -0.13075E+01   0.00000E+00  -0.18075E+01
      23   0.00000E+00   0.10000E+01   0.00000E+00   0.00000E+00
      24   0.10785E+01   0.86489E+00   0.78499E-01  -0.13511E+00
      25   0.21203E+01   0.63404E+00   0.12029E+00  -0.36596E+00
      26   0.31221E+01   0.35816E+00   0.12207E+00  -0.64184E+00
      27   0.41064E+01   0.79828E-01   0.10643E+00  -0.92017E+00
      28   0.50818E+01  -0.17679E+00   0.81807E-01  -0.11768E+01
      29   0.60583E+01  -0.39799E+00   0.58303E-01  -0.13980E+01
      30   0.70381E+01  -0.57515E+00   0.38142E-01  -0.15752E+01
      31   0.80225E+01  -0.70422E+00   0.22465E-01  -0.17042E+01
      32   0.90103E+01  -0.78224E+00   0.10272E-01  -0.17822E+01
      33   0.10000E+02  -0.80853E+00   0.00000E+00  -0.18085E+01
  __________________________________________________

  _____________________________________________________________________________

            x-coord.     y-coord.     SigmaXX     SigmaYY     SigmaXY
                                        SXX         SYY          SXY
  _____________________________________________________________________________

    1     0.41211E+00  0.17295E+00 -0.18534E+06 -0.78515E+04 -0.46556E+05
                                   -0.14638E+06 -0.12003E+05 -0.50219E+05
    1     0.44961E+00  0.74609E+00  0.40444E+06  0.15801E+05 -0.88410E+05
                                    0.51919E+06  0.16664E+05 -0.81916E+05
    1     0.15377E+01 -0.25535E-01 -0.24742E+05  0.16530E+05 -0.27355E+05
                                    0.14420E+05  0.74912E+04 -0.30992E+05
    1     0.16485E+01  0.53817E+00  0.24364E+06  0.16408E+05 -0.87473E+05
                                    0.37586E+06  0.19718E+03 -0.67825E+05
    2     0.23625E+01 -0.24517E+00  0.58495E+05  0.15979E+05 -0.36955E+05
                                    0.11374E+06  0.36708E+04 -0.31196E+05
    2     0.24981E+01  0.31344E+00  0.15297E+06  0.22092E+05 -0.63457E+05
                                    0.25267E+06  0.43382E+04 -0.48393E+05
    2     0.34952E+01 -0.56171E+00  0.11237E+06  0.18316E+05 -0.44233E+05
                                    0.18051E+06  0.43785E+04 -0.32516E+05
    2     0.36394E+01 -0.55236E-02  0.10245E+06  0.12336E+05 -0.41110E+05
                                    0.16415E+06 -0.57089E+03 -0.28829E+05
    3     0.43303E+01 -0.79530E+00  0.14973E+06  0.16665E+05 -0.47389E+05
                                    0.21991E+06  0.36083E+04 -0.32512E+05
    3     0.44670E+01 -0.23717E+00  0.68323E+05  0.76550E+04 -0.27471E+05
                                    0.10596E+06 -0.88407E+03 -0.19524E+05
    3     0.54839E+01 -0.10774E+01  0.17517E+06  0.12146E+05 -0.44574E+05
                                    0.23437E+06  0.24590E+04 -0.29900E+05
    3     0.56006E+01 -0.51482E+00  0.46233E+05  0.17233E+04 -0.16122E+05
                                    0.64357E+05 -0.25747E+04 -0.11112E+05
    4     0.63369E+01 -0.12528E+01  0.19293E+06  0.90543E+04 -0.39355E+05
                                    0.24035E+06  0.25093E+04 -0.26239E+05
    4     0.64342E+01 -0.68634E+00  0.31654E+05 -0.32536E+03 -0.10271E+05
                                    0.41188E+05 -0.26449E+04 -0.72715E+04
    4     0.75118E+01 -0.14357E+01  0.20761E+06  0.45122E+04 -0.28833E+05
                                    0.23839E+06  0.19444E+04 -0.19218E+05
    4     0.75794E+01 -0.86496E+00  0.19431E+05 -0.25390E+04 -0.53352E+04
                                    0.22858E+05 -0.33734E+04 -0.38328E+04
    5     0.83779E+01 -0.15271E+01  0.21543E+06  0.22944E+04 -0.19485E+05
                                    0.23668E+06  0.19383E+04 -0.13029E+05
    5     0.84223E+01 -0.95393E+00  0.13264E+05 -0.31389E+04 -0.28550E+04
                                    0.14483E+05 -0.34242E+04 -0.20874E+04
    5     0.95647E+01 -0.15896E+01  0.22047E+06  0.53678E+03 -0.53108E+04
                                    0.23462E+06  0.17886E+04 -0.35412E+04
    5     0.95767E+01 -0.10148E+01  0.91156E+04 -0.36418E+04 -0.74379E+03
                                    0.92293E+04 -0.36463E+04 -0.57028E+03
  _____________________________________________________________________________


     Iteration No.  1     Error (root-mean-square value)=  0.3038E-01

     Iteration No.  2     Error (root-mean-square value)=  0.4527E-02

     Iteration No.  3     Error (root-mean-square value)=  0.8181E-03

     S O L U T I O N :


     LOAD, FS................................= -0.1500E+02
  __________________________________________________

     Node    x-coord.      y-coord.     U      V  
  __________________________________________________

       1   0.00000E+00   0.00000E+00   0.00000E+00   0.00000E+00
       2   0.93844E+00  -0.12525E+00  -0.61563E-01  -0.12525E+00
       3   0.18963E+01  -0.35372E+00  -0.10367E+00  -0.35372E+00
       4   0.28703E+01  -0.63282E+00  -0.12969E+00  -0.63282E+00
       5   0.38552E+01  -0.92140E+00  -0.14483E+00  -0.92140E+00
       6   0.48553E+01  -0.11923E+01  -0.14467E+00  -0.11923E+01
       7   0.58676E+01  -0.14276E+01  -0.13242E+00  -0.14276E+01
       8   0.68911E+01  -0.16172E+01  -0.10891E+00  -0.16172E+01
       9   0.79228E+01  -0.17553E+01  -0.77239E-01  -0.17553E+01
      10   0.89600E+01  -0.18391E+01  -0.39994E-01  -0.18391E+01
      11   0.10000E+02  -0.18671E+01   0.00000E+00  -0.18671E+01
      12   0.00000E+00   0.50000E+00   0.00000E+00   0.00000E+00
      13   0.10184E+01   0.36895E+00   0.18371E-01  -0.13105E+00
      14   0.20150E+01   0.13069E+00   0.14984E-01  -0.36931E+00
      15   0.29989E+01  -0.15145E+00  -0.10659E-02  -0.65145E+00
      16   0.39800E+01  -0.44018E+00  -0.19978E-01  -0.94018E+00
      17   0.49658E+01  -0.70795E+00  -0.34194E-01  -0.12080E+01
      18   0.59593E+01  -0.93961E+00  -0.40671E-01  -0.14396E+01
      19   0.69611E+01  -0.11256E+01  -0.38886E-01  -0.16256E+01
      20   0.79699E+01  -0.12610E+01  -0.30104E-01  -0.17610E+01
      21   0.89837E+01  -0.13430E+01  -0.16329E-01  -0.18430E+01
      22   0.10000E+02  -0.13706E+01   0.00000E+00  -0.18706E+01
      23   0.00000E+00   0.10000E+01   0.00000E+00   0.00000E+00
      24   0.10819E+01   0.85743E+00   0.81896E-01  -0.14257E+00
      25   0.21249E+01   0.61576E+00   0.12492E+00  -0.38424E+00
      26   0.31255E+01   0.32879E+00   0.12551E+00  -0.67121E+00
      27   0.41083E+01   0.40784E-01   0.10828E+00  -0.95922E+00
      28   0.50823E+01  -0.22372E+00   0.82277E-01  -0.12237E+01
      29   0.60579E+01  -0.45106E+00   0.57919E-01  -0.14511E+01
      30   0.70374E+01  -0.63279E+00   0.37427E-01  -0.16328E+01
      31   0.80218E+01  -0.76499E+00   0.21782E-01  -0.17650E+01
      32   0.90099E+01  -0.84485E+00   0.98744E-02  -0.18448E+01
      33   0.10000E+02  -0.87174E+00   0.00000E+00  -0.18717E+01
  __________________________________________________

  _____________________________________________________________________________

            x-coord.     y-coord.     SigmaXX     SigmaYY     SigmaXY
                                        SXX         SYY          SXY
  _____________________________________________________________________________

    1     0.41187E+00  0.17063E+00 -0.18933E+06 -0.79632E+04 -0.49807E+05
                                   -0.14609E+06 -0.12661E+05 -0.53638E+05
    1     0.45098E+00  0.74346E+00  0.42080E+06  0.17027E+05 -0.94806E+05
                                    0.54913E+06  0.18052E+05 -0.87953E+05
    1     0.15363E+01 -0.37443E-01 -0.19898E+05  0.18252E+05 -0.29414E+05
                                    0.23864E+05  0.81828E+04 -0.32903E+05
    1     0.16516E+01  0.52522E+00  0.25097E+06  0.18799E+05 -0.93245E+05
                                    0.39804E+06  0.88038E+03 -0.72257E+05
    2     0.23600E+01 -0.26643E+00  0.65774E+05  0.17787E+05 -0.40131E+05
                                    0.12819E+06  0.40601E+04 -0.33384E+05
    2     0.25005E+01  0.29078E+00  0.15750E+06  0.24197E+05 -0.67064E+05
                                    0.26713E+06  0.47664E+04 -0.50929E+05
    2     0.34916E+01 -0.59490E+00  0.12013E+06  0.20067E+05 -0.47724E+05
                                    0.19639E+06  0.46773E+04 -0.34736E+05
    2     0.36403E+01 -0.40114E-01  0.10686E+06  0.13377E+05 -0.43514E+05
                                    0.17438E+06 -0.66473E+03 -0.30177E+05
    3     0.43263E+01 -0.83630E+00  0.15776E+06  0.18190E+05 -0.50791E+05
                                    0.23558E+06  0.38992E+04 -0.34642E+05
    3     0.44667E+01 -0.27932E+00  0.72803E+05  0.83255E+04 -0.29291E+05
                                    0.11414E+06 -0.98322E+03 -0.20525E+05
    3     0.54798E+01 -0.11270E+01  0.18327E+06  0.13207E+05 -0.47510E+05
                                    0.24834E+06  0.26955E+04 -0.31780E+05
    3     0.55994E+01 -0.56519E+00  0.50970E+05  0.19334E+04 -0.17481E+05
                                    0.71128E+05 -0.27973E+04 -0.11816E+05
    4     0.63333E+01 -0.13072E+01  0.20104E+06  0.98004E+04 -0.41802E+05
                                    0.25285E+06  0.27356E+04 -0.27840E+05
    4     0.64327E+01 -0.74129E+00  0.36623E+05 -0.25346E+03 -0.11350E+05
                                    0.47410E+05 -0.28411E+04 -0.78416E+04
    4     0.75091E+01 -0.14949E+01  0.21594E+06  0.49129E+04 -0.30549E+05
                                    0.24941E+06  0.21584E+04 -0.20366E+05
    4     0.75781E+01 -0.92445E+00  0.24404E+05 -0.26348E+04 -0.60553E+04
                                    0.28390E+05 -0.35831E+04 -0.42206E+04
    5     0.83761E+01 -0.15885E+01  0.22381E+06  0.25062E+04 -0.20621E+05
                                    0.24685E+06  0.21321E+04 -0.13800E+05
    5     0.84213E+01 -0.10155E+01  0.18299E+05 -0.32981E+04 -0.33152E+04
                                    0.19764E+05 -0.36256E+04 -0.23359E+04
    5     0.95642E+01 -0.16525E+01  0.22897E+06  0.62579E+03 -0.56167E+04
                                    0.24427E+06  0.19775E+04 -0.37495E+04
    5     0.95764E+01 -0.10779E+01  0.14117E+05 -0.38464E+04 -0.87035E+03
                                    0.14280E+05 -0.38473E+04 -0.64101E+03
  _____________________________________________________________________________


     Iteration No.  1     Error (root-mean-square value)=  0.2812E-01

     Iteration No.  2     Error (root-mean-square value)=  0.4425E-02

     Iteration No.  3     Error (root-mean-square value)=  0.8289E-03

     S O L U T I O N :


     LOAD, FS................................= -0.1600E+02
  __________________________________________________

     Node    x-coord.      y-coord.     U      V  
  __________________________________________________

       1   0.00000E+00   0.00000E+00   0.00000E+00   0.00000E+00
       2   0.93618E+00  -0.13140E+00  -0.63816E-01  -0.13140E+00
       3   0.18926E+01  -0.36948E+00  -0.10739E+00  -0.36948E+00
       4   0.28657E+01  -0.65899E+00  -0.13434E+00  -0.65899E+00
       5   0.38500E+01  -0.95717E+00  -0.14997E+00  -0.95717E+00
       6   0.48503E+01  -0.12362E+01  -0.14970E+00  -0.12362E+01
       7   0.58631E+01  -0.14778E+01  -0.13690E+00  -0.14778E+01
       8   0.68875E+01  -0.16721E+01  -0.11252E+00  -0.16721E+01
       9   0.79202E+01  -0.18135E+01  -0.79750E-01  -0.18135E+01
      10   0.89587E+01  -0.18992E+01  -0.41282E-01  -0.18992E+01
      11   0.10000E+02  -0.19278E+01   0.00000E+00  -0.19278E+01
      12   0.00000E+00   0.50000E+00   0.00000E+00   0.00000E+00
      13   0.10195E+01   0.36216E+00   0.19490E-01  -0.13784E+00
      14   0.20154E+01   0.11375E+00   0.15450E-01  -0.38625E+00
      15   0.29981E+01  -0.17886E+00  -0.18544E-02  -0.67886E+00
      16   0.39781E+01  -0.47700E+00  -0.21896E-01  -0.97700E+00
      17   0.49633E+01  -0.75255E+00  -0.36742E-01  -0.12526E+01
      18   0.59567E+01  -0.99032E+00  -0.43322E-01  -0.14903E+01
      19   0.69588E+01  -0.11808E+01  -0.41219E-01  -0.16808E+01
      20   0.79682E+01  -0.13194E+01  -0.31815E-01  -0.18194E+01
      21   0.89828E+01  -0.14032E+01  -0.17230E-01  -0.19032E+01
      22   0.10000E+02  -0.14314E+01   0.00000E+00  -0.19314E+01
      23   0.00000E+00   0.10000E+01   0.00000E+00   0.00000E+00
      24   0.10852E+01   0.85006E+00   0.85194E-01  -0.14994E+00
      25   0.21294E+01   0.59781E+00   0.12937E+00  -0.40219E+00
      26   0.31287E+01   0.30012E+00   0.12873E+00  -0.69988E+00
      27   0.41099E+01   0.28451E-02   0.10991E+00  -0.99715E+00
      28   0.50826E+01  -0.26918E+00   0.82584E-01  -0.12692E+01
      29   0.60574E+01  -0.50236E+00   0.57430E-01  -0.15024E+01
      30   0.70367E+01  -0.68841E+00   0.36653E-01  -0.16884E+01
      31   0.80211E+01  -0.82360E+00   0.21069E-01  -0.18236E+01
      32   0.90095E+01  -0.90520E+00   0.94649E-02  -0.19052E+01
      33   0.10000E+02  -0.93267E+00   0.00000E+00  -0.19327E+01
  __________________________________________________

  _____________________________________________________________________________

            x-coord.     y-coord.     SigmaXX     SigmaYY     SigmaXY
                                        SXX         SYY          SXY
  _____________________________________________________________________________

    1     0.41165E+00  0.16832E+00 -0.19297E+06 -0.80347E+04 -0.53077E+05
                                   -0.14524E+06 -0.13305E+05 -0.57059E+05
    1     0.45232E+00  0.74085E+00  0.43641E+06  0.18287E+05 -0.10118E+06
                                    0.57891E+06  0.19492E+05 -0.93996E+05
    1     0.15349E+01 -0.49143E-01 -0.14923E+05  0.20037E+05 -0.31508E+05
                                    0.33693E+05  0.88977E+04 -0.34810E+05
    1     0.16545E+01  0.51247E+00  0.25776E+06  0.21289E+05 -0.98928E+05
                                    0.42017E+06  0.16263E+04 -0.76637E+05
    2     0.23576E+01 -0.28721E+00  0.72956E+05  0.19661E+05 -0.43355E+05
                                    0.14295E+06  0.44620E+04 -0.35582E+05
    2     0.25028E+01  0.26861E+00  0.16175E+06  0.26327E+05 -0.70578E+05
                                    0.28147E+06  0.52007E+04 -0.53382E+05
    2     0.34881E+01 -0.62719E+00  0.12764E+06  0.21853E+05 -0.51220E+05
                                    0.21234E+06  0.49816E+04 -0.36950E+05
    2     0.36410E+01 -0.73785E-01  0.11114E+06  0.14425E+05 -0.45896E+05
                                    0.18460E+06 -0.76317E+03 -0.31492E+05
    3     0.43223E+01 -0.87607E+00  0.16547E+06  0.19738E+05 -0.54166E+05
                                    0.25114E+06  0.42012E+04 -0.36756E+05
    3     0.44663E+01 -0.32020E+00  0.77233E+05  0.90119E+04 -0.31125E+05
                                    0.12239E+06 -0.10824E+04 -0.21524E+05
    3     0.54759E+01 -0.11749E+01  0.19104E+06  0.14279E+05 -0.50408E+05
                                    0.26207E+06  0.29436E+04 -0.33644E+05
    3     0.55981E+01 -0.61392E+00  0.55679E+05  0.21617E+04 -0.18874E+05
                                    0.77974E+05 -0.30170E+04 -0.12536E+05
    4     0.63298E+01 -0.13597E+01  0.20880E+06  0.10553E+05 -0.44213E+05
                                    0.26506E+06  0.29706E+04 -0.29427E+05
    4     0.64312E+01 -0.79437E+00  0.41567E+05 -0.16672E+03 -0.12463E+05
                                    0.53686E+05 -0.30339E+04 -0.84314E+04
    4     0.75065E+01 -0.15520E+01  0.22395E+06  0.53186E+04 -0.32240E+05
                                    0.26012E+06  0.23789E+04 -0.21505E+05
    4     0.75767E+01 -0.98183E+00  0.29347E+05 -0.27205E+04 -0.68001E+04
                                    0.33939E+05 -0.37877E+04 -0.46246E+04
    5     0.83743E+01 -0.16477E+01  0.23188E+06  0.27215E+04 -0.21741E+05
                                    0.25671E+06  0.23300E+04 -0.14565E+05
    5     0.84204E+01 -0.10750E+01  0.23296E+05 -0.34514E+04 -0.37918E+04
                                    0.25035E+05 -0.38224E+04 -0.25955E+04
    5     0.95637E+01 -0.17131E+01  0.23716E+06  0.71753E+03 -0.59184E+04
                                    0.25361E+06  0.21690E+04 -0.39565E+04
    5     0.95762E+01 -0.11387E+01  0.19077E+05 -0.40476E+04 -0.10010E+04
                                    0.19303E+05 -0.40434E+04 -0.71461E+03
  _____________________________________________________________________________


     Iteration No.  1     Error (root-mean-square value)=  0.2616E-01

     Iteration No.  2     Error (root-mean-square value)=  0.4325E-02

     Iteration No.  3     Error (root-mean-square value)=  0.8380E-03

     S O L U T I O N :


     LOAD, FS................................= -0.1700E+02
  __________________________________________________

     Node    x-coord.      y-coord.     U      V  
  __________________________________________________

       1   0.00000E+00   0.00000E+00   0.00000E+00   0.00000E+00
       2   0.93400E+00  -0.13748E+00  -0.65996E-01  -0.13748E+00
       3   0.18890E+01  -0.38493E+00  -0.11101E+00  -0.38493E+00
       4   0.28612E+01  -0.68455E+00  -0.13885E+00  -0.68455E+00
       5   0.38451E+01  -0.99200E+00  -0.15495E+00  -0.99200E+00
       6   0.48454E+01  -0.12787E+01  -0.15457E+00  -0.12787E+01
       7   0.58588E+01  -0.15265E+01  -0.14123E+00  -0.15265E+01
       8   0.68840E+01  -0.17253E+01  -0.11601E+00  -0.17253E+01
       9   0.79178E+01  -0.18697E+01  -0.82172E-01  -0.18697E+01
      10   0.89575E+01  -0.19573E+01  -0.42525E-01  -0.19573E+01
      11   0.10000E+02  -0.19865E+01   0.00000E+00  -0.19865E+01
      12   0.00000E+00   0.50000E+00   0.00000E+00   0.00000E+00
      13   0.10206E+01   0.35543E+00   0.20596E-01  -0.14457E+00
      14   0.20159E+01   0.97116E-01   0.15873E-01  -0.40288E+00
      15   0.29973E+01  -0.20564E+00  -0.26832E-02  -0.70564E+00
      16   0.39762E+01  -0.51285E+00  -0.23826E-01  -0.10129E+01
      17   0.49607E+01  -0.79585E+00  -0.39270E-01  -0.12958E+01
      18   0.59541E+01  -0.10394E+01  -0.45934E-01  -0.15394E+01
      19   0.69565E+01  -0.12343E+01  -0.43506E-01  -0.17343E+01
      20   0.79665E+01  -0.13758E+01  -0.33489E-01  -0.18758E+01
      21   0.89819E+01  -0.14614E+01  -0.18109E-01  -0.19614E+01
      22   0.10000E+02  -0.14901E+01   0.00000E+00  -0.19901E+01
      23   0.00000E+00   0.10000E+01   0.00000E+00   0.00000E+00
      24   0.10884E+01   0.84279E+00   0.88401E-01  -0.15721E+00
      25   0.21337E+01   0.58016E+00   0.13368E+00  -0.41984E+00
      26   0.31317E+01   0.27207E+00   0.13174E+00  -0.72793E+00
      27   0.41114E+01  -0.34099E-01   0.11135E+00  -0.10341E+01
      28   0.50828E+01  -0.31332E+00   0.82752E-01  -0.13133E+01
      29   0.60569E+01  -0.55206E+00   0.56853E-01  -0.15521E+01
      30   0.70358E+01  -0.74225E+00   0.35831E-01  -0.17422E+01
      31   0.80203E+01  -0.88029E+00   0.20334E-01  -0.18803E+01
      32   0.90090E+01  -0.96355E+00   0.90473E-02  -0.19635E+01
      33   0.10000E+02  -0.99157E+00   0.00000E+00  -0.19916E+01
  __________________________________________________

  _____________________________________________________________________________

            x-coord.     y-coord.     SigmaXX     SigmaYY     SigmaXY
                                        SXX         SYY          SXY
  _____________________________________________________________________________

    1     0.41144E+00  0.16603E+00 -0.19627E+06 -0.80665E+04 -0.56369E+05
                                   -0.14386E+06 -0.13936E+05 -0.60483E+05
    1     0.45364E+00  0.73825E+00  0.45132E+06  0.19580E+05 -0.10752E+06
                                    0.60856E+06  0.20986E+05 -0.10004E+06
    1     0.15337E+01 -0.60656E-01 -0.98424E+04  0.21886E+05 -0.33635E+05
                                    0.43884E+05  0.96354E+04 -0.36714E+05
    1     0.16574E+01  0.49992E+00  0.26404E+06  0.23874E+05 -0.10452E+06
                                    0.44228E+06  0.24324E+04 -0.80968E+05
    2     0.23552E+01 -0.30757E+00  0.80033E+05  0.21598E+05 -0.46624E+05
                                    0.15801E+06  0.48770E+04 -0.37791E+05
    2     0.25049E+01  0.24687E+00  0.16575E+06  0.28478E+05 -0.74005E+05
                                    0.29574E+06  0.56405E+04 -0.55758E+05
    2     0.34846E+01 -0.65867E+00  0.13491E+06  0.23673E+05 -0.54718E+05
                                    0.22837E+06  0.52925E+04 -0.39158E+05
    2     0.36415E+01 -0.10663E+00  0.11531E+06  0.15482E+05 -0.48261E+05
                                    0.19482E+06 -0.86527E+03 -0.32776E+05
    3     0.43184E+01 -0.91473E+00  0.17288E+06  0.21306E+05 -0.57513E+05
                                    0.26659E+06  0.45148E+04 -0.38857E+05
    3     0.44658E+01 -0.35996E+00  0.81616E+05  0.97151E+04 -0.32976E+05
                                    0.13071E+06 -0.11807E+04 -0.22522E+05
    3     0.54721E+01 -0.12214E+01  0.19849E+06  0.15362E+05 -0.53270E+05
                                    0.27559E+06  0.32033E+04 -0.35494E+05
    3     0.55967E+01 -0.66116E+00  0.60357E+05  0.24084E+04 -0.20298E+05
                                    0.84892E+05 -0.32332E+04 -0.13272E+05
    4     0.63264E+01 -0.14106E+01  0.21626E+06  0.11313E+05 -0.46590E+05
                                    0.27702E+06  0.32143E+04 -0.31001E+05
    4     0.64297E+01 -0.84576E+00  0.46479E+05 -0.65436E+02 -0.13607E+05
                                    0.60008E+05 -0.32232E+04 -0.90397E+04
    4     0.75040E+01 -0.16072E+01  0.23165E+06  0.57289E+04 -0.33907E+05
                                    0.27056E+06  0.26055E+04 -0.22636E+05
    4     0.75754E+01 -0.10373E+01  0.34254E+05 -0.27966E+04 -0.75669E+04
                                    0.39495E+05 -0.39875E+04 -0.50435E+04
    5     0.83726E+01 -0.17049E+01  0.23966E+06  0.29401E+04 -0.22847E+05
                                    0.26629E+06  0.25318E+04 -0.15325E+05
    5     0.84194E+01 -0.11324E+01  0.28248E+05 -0.35993E+04 -0.42829E+04
                                    0.30286E+05 -0.40149E+04 -0.28653E+04
    5     0.95632E+01 -0.17718E+01  0.24506E+06  0.81162E+03 -0.62165E+04
                                    0.26266E+06  0.23629E+04 -0.41626E+04
    5     0.95759E+01 -0.11974E+01  0.23987E+05 -0.42457E+04 -0.11354E+04
                                    0.24291E+05 -0.42351E+04 -0.79076E+03
  _____________________________________________________________________________


     Iteration No.  1     Error (root-mean-square value)=  0.2445E-01

     Iteration No.  2     Error (root-mean-square value)=  0.4228E-02

     Iteration No.  3     Error (root-mean-square value)=  0.8458E-03

     S O L U T I O N :


     LOAD, FS................................= -0.1800E+02
  __________________________________________________

     Node    x-coord.      y-coord.     U      V  
  __________________________________________________

       1   0.00000E+00   0.00000E+00   0.00000E+00   0.00000E+00
       2   0.93189E+00  -0.14347E+00  -0.68108E-01  -0.14347E+00
       3   0.18855E+01  -0.40011E+00  -0.11452E+00  -0.40011E+00
       4   0.28568E+01  -0.70956E+00  -0.14323E+00  -0.70956E+00
       5   0.38402E+01  -0.10260E+01  -0.15977E+00  -0.10260E+01
       6   0.48407E+01  -0.13201E+01  -0.15929E+00  -0.13201E+01
       7   0.58546E+01  -0.15737E+01  -0.14542E+00  -0.15737E+01
       8   0.68806E+01  -0.17768E+01  -0.11938E+00  -0.17768E+01
       9   0.79155E+01  -0.19243E+01  -0.84514E-01  -0.19243E+01
      10   0.89563E+01  -0.20136E+01  -0.43725E-01  -0.20136E+01
      11   0.10000E+02  -0.20433E+01   0.00000E+00  -0.20433E+01
      12   0.00000E+00   0.50000E+00   0.00000E+00   0.00000E+00
      13   0.10217E+01   0.34878E+00   0.21690E-01  -0.15122E+00
      14   0.20163E+01   0.80751E-01   0.16257E-01  -0.41925E+00
      15   0.29965E+01  -0.23186E+00  -0.35477E-02  -0.73186E+00
      16   0.39742E+01  -0.54781E+00  -0.25764E-01  -0.10478E+01
      17   0.49582E+01  -0.83797E+00  -0.41777E-01  -0.13380E+01
      18   0.59515E+01  -0.10872E+01  -0.48506E-01  -0.15872E+01
      19   0.69543E+01  -0.12861E+01  -0.45750E-01  -0.17861E+01
      20   0.79649E+01  -0.14306E+01  -0.35128E-01  -0.19306E+01
      21   0.89810E+01  -0.15179E+01  -0.18970E-01  -0.20179E+01
      22   0.10000E+02  -0.15471E+01   0.00000E+00  -0.20471E+01
      23   0.00000E+00   0.10000E+01   0.00000E+00   0.00000E+00
      24   0.10915E+01   0.83559E+00   0.91528E-01  -0.16441E+00
      25   0.21378E+01   0.56277E+00   0.13784E+00  -0.43723E+00
      26   0.31346E+01   0.24460E+00   0.13456E+00  -0.75540E+00
      27   0.41126E+01  -0.70140E-01   0.11262E+00  -0.10701E+01
      28   0.50828E+01  -0.35625E+00   0.82799E-01  -0.13563E+01
      29   0.60562E+01  -0.60033E+00   0.56204E-01  -0.16003E+01
      30   0.70350E+01  -0.79447E+00   0.34972E-01  -0.17945E+01
      31   0.80196E+01  -0.93525E+00   0.19583E-01  -0.19352E+01
      32   0.90086E+01  -0.10201E+01   0.86240E-02  -0.20201E+01
      33   0.10000E+02  -0.10487E+01   0.00000E+00  -0.20487E+01
  __________________________________________________

  _____________________________________________________________________________

            x-coord.     y-coord.     SigmaXX     SigmaYY     SigmaXY
                                        SXX         SYY          SXY
  _____________________________________________________________________________

    1     0.41126E+00  0.16376E+00 -0.19928E+06 -0.80592E+04 -0.59682E+05
                                   -0.14198E+06 -0.14553E+05 -0.63913E+05
    1     0.45493E+00  0.73566E+00  0.46560E+06  0.20907E+05 -0.11384E+06
                                    0.63814E+06  0.22533E+05 -0.10609E+06
    1     0.15324E+01 -0.71999E-01 -0.46749E+04  0.23797E+05 -0.35791E+05
                                    0.54419E+05  0.10395E+05 -0.38615E+05
    1     0.16602E+01  0.48753E+00  0.26987E+06  0.26547E+05 -0.11003E+06
                                    0.46440E+06  0.32962E+04 -0.85251E+05
    2     0.23528E+01 -0.32754E+00  0.86999E+05  0.23598E+05 -0.49934E+05
                                    0.17337E+06  0.53054E+04 -0.40009E+05
    2     0.25069E+01  0.22552E+00  0.16952E+06  0.30650E+05 -0.77351E+05
                                    0.30993E+06  0.60851E+04 -0.58061E+05
    2     0.34812E+01 -0.68942E+00  0.14195E+06  0.25526E+05 -0.58215E+05
                                    0.24446E+06  0.56110E+04 -0.41359E+05
    2     0.36420E+01 -0.13871E+00  0.11938E+06  0.16547E+05 -0.50612E+05
                                    0.20507E+06 -0.97009E+03 -0.34034E+05
    3     0.43146E+01 -0.95240E+00  0.18001E+06  0.22895E+05 -0.60831E+05
                                    0.28194E+06  0.48403E+04 -0.40944E+05
    3     0.44652E+01 -0.39868E+00  0.85955E+05  0.10436E+05 -0.34844E+05
                                    0.13912E+06 -0.12775E+04 -0.23522E+05
    3     0.54683E+01 -0.12666E+01  0.20566E+06  0.16456E+05 -0.56097E+05
                                    0.28891E+06  0.34747E+04 -0.37330E+05
    3     0.55953E+01 -0.70708E+00  0.65003E+05  0.26736E+04 -0.21751E+05
                                    0.91877E+05 -0.34453E+04 -0.14025E+05
    4     0.63231E+01 -0.14600E+01  0.22344E+06  0.12079E+05 -0.48936E+05
                                    0.28874E+06  0.34665E+04 -0.32565E+05
    4     0.64282E+01 -0.89565E+00  0.51356E+05  0.50103E+02 -0.14778E+05
                                    0.66371E+05 -0.34087E+04 -0.96655E+04
    4     0.75015E+01 -0.16607E+01  0.23908E+06  0.61438E+04 -0.35554E+05
                                    0.28075E+06  0.28378E+04 -0.23761E+05
    4     0.75741E+01 -0.10912E+01  0.39118E+05 -0.28636E+04 -0.83534E+04
                                    0.45050E+05 -0.41825E+04 -0.54759E+04
    5     0.83710E+01 -0.17604E+01  0.24717E+06  0.31618E+04 -0.23940E+05
                                    0.27562E+06  0.27373E+04 -0.16082E+05
    5     0.84185E+01 -0.11881E+01  0.33148E+05 -0.37421E+04 -0.47867E+04
                                    0.35511E+05 -0.42033E+04 -0.31442E+04
    5     0.95628E+01 -0.18286E+01  0.25270E+06  0.90776E+03 -0.65114E+04
                                    0.27146E+06  0.25588E+04 -0.43678E+04
    5     0.95756E+01 -0.12544E+01  0.28841E+05 -0.44412E+04 -0.12728E+04
                                    0.29236E+05 -0.44228E+04 -0.86920E+03
  _____________________________________________________________________________


     Iteration No.  1     Error (root-mean-square value)=  0.2294E-01

     Iteration No.  2     Error (root-mean-square value)=  0.4135E-02

     Iteration No.  3     Error (root-mean-square value)=  0.8524E-03

     S O L U T I O N :


     LOAD, FS................................= -0.1900E+02
  __________________________________________________

     Node    x-coord.      y-coord.     U      V  
  __________________________________________________

       1   0.00000E+00   0.00000E+00   0.00000E+00   0.00000E+00
       2   0.92984E+00  -0.14940E+00  -0.70157E-01  -0.14940E+00
       3   0.18821E+01  -0.41504E+00  -0.11793E+00  -0.41504E+00
       4   0.28525E+01  -0.73408E+00  -0.14749E+00  -0.73408E+00
       5   0.38355E+01  -0.10592E+01  -0.16446E+00  -0.10592E+01
       6   0.48361E+01  -0.13605E+01  -0.16387E+00  -0.13605E+01
       7   0.58505E+01  -0.16197E+01  -0.14948E+00  -0.16197E+01
       8   0.68773E+01  -0.18270E+01  -0.12265E+00  -0.18270E+01
       9   0.79132E+01  -0.19773E+01  -0.86783E-01  -0.19773E+01
      10   0.89551E+01  -0.20683E+01  -0.44889E-01  -0.20683E+01
      11   0.10000E+02  -0.20986E+01   0.00000E+00  -0.20986E+01
      12   0.00000E+00   0.50000E+00   0.00000E+00   0.00000E+00
      13   0.10228E+01   0.34218E+00   0.22774E-01  -0.15782E+00
      14   0.20166E+01   0.64635E-01   0.16606E-01  -0.43536E+00
      15   0.29956E+01  -0.25757E+00  -0.44439E-02  -0.75757E+00
      16   0.39723E+01  -0.58197E+00  -0.27706E-01  -0.10820E+01
      17   0.49557E+01  -0.87902E+00  -0.44262E-01  -0.13790E+01
      18   0.59490E+01  -0.11336E+01  -0.51040E-01  -0.16336E+01
      19   0.69520E+01  -0.13366E+01  -0.47953E-01  -0.18366E+01
      20   0.79633E+01  -0.14838E+01  -0.36733E-01  -0.19838E+01
      21   0.89802E+01  -0.15727E+01  -0.19812E-01  -0.20727E+01
      22   0.10000E+02  -0.16025E+01   0.00000E+00  -0.21025E+01
      23   0.00000E+00   0.10000E+01   0.00000E+00   0.00000E+00
      24   0.10946E+01   0.82847E+00   0.94582E-01  -0.17153E+00
      25   0.21419E+01   0.54563E+00   0.14187E+00  -0.45437E+00
      26   0.31372E+01   0.21765E+00   0.13721E+00  -0.78235E+00
      27   0.41137E+01  -0.10536E+00   0.11374E+00  -0.11054E+01
      28   0.50827E+01  -0.39811E+00   0.82740E-01  -0.13981E+01
      29   0.60555E+01  -0.64730E+00   0.55492E-01  -0.16473E+01
      30   0.70341E+01  -0.84525E+00   0.34082E-01  -0.18453E+01
      31   0.80188E+01  -0.98866E+00   0.18820E-01  -0.19887E+01
      32   0.90082E+01  -0.10751E+01   0.81972E-02  -0.20751E+01
      33   0.10000E+02  -0.11041E+01   0.00000E+00  -0.21041E+01
  __________________________________________________

  _____________________________________________________________________________

            x-coord.     y-coord.     SigmaXX     SigmaYY     SigmaXY
                                        SXX         SYY          SXY
  _____________________________________________________________________________

    1     0.41109E+00  0.16149E+00 -0.20202E+06 -0.80130E+04 -0.63017E+05
                                   -0.13962E+06 -0.15155E+05 -0.67348E+05
    1     0.45620E+00  0.73309E+00  0.47927E+06  0.22267E+05 -0.12013E+06
                                    0.66766E+06  0.24134E+05 -0.11215E+06
    1     0.15312E+01 -0.83187E-01  0.56208E+03  0.25768E+05 -0.37977E+05
                                    0.65284E+05  0.11177E+05 -0.40513E+05
    1     0.16629E+01  0.47530E+00  0.27529E+06  0.29305E+05 -0.11545E+06
                                    0.48655E+06  0.42156E+04 -0.89488E+05
    2     0.23505E+01 -0.34715E+00  0.93848E+05  0.25658E+05 -0.53279E+05
                                    0.18900E+06  0.57476E+04 -0.42235E+05
    2     0.25088E+01  0.20453E+00  0.17309E+06  0.32838E+05 -0.80621E+05
                                    0.32408E+06  0.65342E+04 -0.60296E+05
    2     0.34779E+01 -0.71951E+00  0.14877E+06  0.27408E+05 -0.61707E+05
                                    0.26061E+06  0.59383E+04 -0.43553E+05
    2     0.36423E+01 -0.17011E+00  0.12336E+06  0.17622E+05 -0.52952E+05
                                    0.21534E+06 -0.10767E+04 -0.35269E+05
    3     0.43110E+01 -0.98915E+00  0.18687E+06  0.24502E+05 -0.64121E+05
                                    0.29721E+06  0.51782E+04 -0.43018E+05
    3     0.44646E+01 -0.43648E+00  0.90252E+05  0.11174E+05 -0.36730E+05
                                    0.14761E+06 -0.13721E+04 -0.24525E+05
    3     0.54647E+01 -0.13107E+01  0.21256E+06  0.17561E+05 -0.58890E+05
                                    0.30205E+06  0.37576E+04 -0.39154E+05
    3     0.55939E+01 -0.75178E+00  0.69613E+05  0.29573E+04 -0.23233E+05
                                    0.98927E+05 -0.36529E+04 -0.14793E+05
    4     0.63199E+01 -0.15080E+01  0.23035E+06  0.12852E+05 -0.51253E+05
                                    0.30025E+06  0.37272E+04 -0.34119E+05
    4     0.64266E+01 -0.94417E+00  0.56193E+05  0.17958E+03 -0.15975E+05
                                    0.72768E+05 -0.35903E+04 -0.10308E+05
    4     0.74991E+01 -0.17128E+01  0.24625E+06  0.65631E+04 -0.37182E+05
                                    0.29070E+06  0.30755E+04 -0.24880E+05
    4     0.75728E+01 -0.11435E+01  0.43935E+05 -0.29220E+04 -0.91576E+04
                                    0.50599E+05 -0.43731E+04 -0.59209E+04
    5     0.83694E+01 -0.18143E+01  0.25444E+06  0.33865E+04 -0.25021E+05
                                    0.28471E+06  0.29461E+04 -0.16836E+05
    5     0.84176E+01 -0.12422E+01  0.37993E+05 -0.38801E+04 -0.53018E+04
                                    0.40705E+05 -0.43878E+04 -0.34315E+04
    5     0.95623E+01 -0.18838E+01  0.26011E+06  0.10057E+04 -0.68034E+04
                                    0.28003E+06  0.27564E+04 -0.45725E+04
    5     0.95753E+01 -0.13097E+01  0.33636E+05 -0.46343E+04 -0.14131E+04
                                    0.34135E+05 -0.46068E+04 -0.94970E+03
  _____________________________________________________________________________


     Iteration No.  1     Error (root-mean-square value)=  0.2161E-01

     Iteration No.  2     Error (root-mean-square value)=  0.4045E-02

     Iteration No.  3     Error (root-mean-square value)=  0.8580E-03

     S O L U T I O N :


     LOAD, FS................................= -0.2000E+02
  __________________________________________________

     Node    x-coord.      y-coord.     U      V  
  __________________________________________________

       1   0.00000E+00   0.00000E+00   0.00000E+00   0.00000E+00
       2   0.92785E+00  -0.15526E+00  -0.72148E-01  -0.15526E+00
       3   0.18787E+01  -0.42974E+00  -0.12126E+00  -0.42974E+00
       4   0.28484E+01  -0.75814E+00  -0.15164E+00  -0.75814E+00
       5   0.38310E+01  -0.10916E+01  -0.16903E+00  -0.10916E+01
       6   0.48317E+01  -0.13999E+01  -0.16832E+00  -0.13999E+01
       7   0.58466E+01  -0.16645E+01  -0.15343E+00  -0.16645E+01
       8   0.68742E+01  -0.18758E+01  -0.12582E+00  -0.18758E+01
       9   0.79110E+01  -0.20289E+01  -0.88985E-01  -0.20289E+01
      10   0.89540E+01  -0.21215E+01  -0.46018E-01  -0.21215E+01
      11   0.10000E+02  -0.21524E+01   0.00000E+00  -0.21524E+01
      12   0.00000E+00   0.50000E+00   0.00000E+00   0.00000E+00
      13   0.10238E+01   0.33563E+00   0.23849E-01  -0.16437E+00
      14   0.20169E+01   0.48748E-01   0.16922E-01  -0.45125E+00
      15   0.29946E+01  -0.28281E+00  -0.53681E-02  -0.78281E+00
      16   0.39703E+01  -0.61540E+00  -0.29651E-01  -0.11154E+01
      17   0.49533E+01  -0.91910E+00  -0.46724E-01  -0.14191E+01
      18   0.59465E+01  -0.11789E+01  -0.53535E-01  -0.16789E+01
      19   0.69499E+01  -0.13857E+01  -0.50116E-01  -0.18857E+01
      20   0.79617E+01  -0.15356E+01  -0.38307E-01  -0.20356E+01
      21   0.89794E+01  -0.16260E+01  -0.20637E-01  -0.21260E+01
      22   0.10000E+02  -0.16563E+01   0.00000E+00  -0.21563E+01
      23   0.00000E+00   0.10000E+01   0.00000E+00   0.00000E+00
      24   0.10976E+01   0.82141E+00   0.97569E-01  -0.17859E+00
      25   0.21458E+01   0.52871E+00   0.14578E+00  -0.47129E+00
      26   0.31397E+01   0.19118E+00   0.13971E+00  -0.80882E+00
      27   0.41147E+01  -0.13982E+00   0.11473E+00  -0.11398E+01
      28   0.50826E+01  -0.43897E+00   0.82590E-01  -0.14390E+01
      29   0.60547E+01  -0.69310E+00   0.54730E-01  -0.16931E+01
      30   0.70332E+01  -0.89472E+00   0.33168E-01  -0.18947E+01
      31   0.80180E+01  -0.10407E+01   0.18049E-01  -0.20407E+01
      32   0.90078E+01  -0.11285E+01   0.77685E-02  -0.21285E+01
      33   0.10000E+02  -0.11581E+01   0.00000E+00  -0.21581E+01
  __________________________________________________

  _____________________________________________________________________________

            x-coord.     y-coord.     SigmaXX     SigmaYY     SigmaXY
                                        SXX         SYY          SXY
  _____________________________________________________________________________

    1     0.41094E+00  0.15923E+00 -0.20450E+06 -0.79283E+04 -0.66376E+05
                                   -0.13679E+06 -0.15744E+05 -0.70790E+05
    1     0.45746E+00  0.73053E+00  0.49238E+06  0.23660E+05 -0.12638E+06
                                    0.69718E+06  0.25788E+05 -0.11821E+06
    1     0.15300E+01 -0.94233E-01  0.58540E+04  0.27798E+05 -0.40191E+05
                                    0.76465E+05  0.11980E+05 -0.42410E+05
    1     0.16655E+01  0.46322E+00  0.28032E+06  0.32142E+05 -0.12079E+06
                                    0.50874E+06  0.51885E+04 -0.93679E+05
    2     0.23483E+01 -0.36644E+00  0.10058E+06  0.27775E+05 -0.56656E+05
                                    0.20491E+06  0.62040E+04 -0.44469E+05
    2     0.25106E+01  0.18387E+00  0.17648E+06  0.35043E+05 -0.83820E+05
                                    0.33820E+06  0.69871E+04 -0.62465E+05
    2     0.34747E+01 -0.74898E+00  0.15539E+06  0.29320E+05 -0.65192E+05
                                    0.27684E+06  0.62753E+04 -0.45740E+05
    2     0.36426E+01 -0.20088E+00  0.12725E+06  0.18708E+05 -0.55284E+05
                                    0.22566E+06 -0.11843E+04 -0.36485E+05
    3     0.43073E+01 -0.10251E+01  0.19348E+06  0.26127E+05 -0.67381E+05
                                    0.31239E+06  0.55287E+04 -0.45080E+05
    3     0.44639E+01 -0.47342E+00  0.94508E+05  0.11932E+05 -0.38634E+05
                                    0.15618E+06 -0.14637E+04 -0.25532E+05
    3     0.54612E+01 -0.13536E+01  0.21921E+06  0.18676E+05 -0.61651E+05
                                    0.31503E+06  0.40521E+04 -0.40967E+05
    3     0.55925E+01 -0.79539E+00  0.74186E+05  0.32596E+04 -0.24740E+05
                                    0.10604E+06 -0.38555E+04 -0.15577E+05
    4     0.63167E+01 -0.15549E+01  0.23702E+06  0.13632E+05 -0.53544E+05
                                    0.31157E+06  0.39962E+04 -0.35665E+05
    4     0.64251E+01 -0.99146E+00  0.60986E+05  0.32270E+03 -0.17196E+05
                                    0.79195E+05 -0.37676E+04 -0.10965E+05
    4     0.74968E+01 -0.17635E+01  0.25320E+06  0.69868E+04 -0.38793E+05
                                    0.30045E+06  0.33185E+04 -0.25995E+05
    4     0.75715E+01 -0.11945E+01  0.48702E+05 -0.29724E+04 -0.99777E+04
                                    0.56138E+05 -0.45593E+04 -0.63774E+04
    5     0.83678E+01 -0.18668E+01  0.26149E+06  0.36141E+04 -0.26092E+05
                                    0.29360E+06  0.31581E+04 -0.17587E+05
    5     0.84166E+01 -0.12949E+01  0.42779E+05 -0.40138E+04 -0.58270E+04
                                    0.45863E+05 -0.45688E+04 -0.37264E+04
    5     0.95619E+01 -0.19375E+01  0.26730E+06  0.11052E+04 -0.70931E+04
                                    0.28838E+06  0.29555E+04 -0.47769E+04
    5     0.95751E+01 -0.13635E+01  0.38369E+05 -0.48253E+04 -0.15558E+04
                                    0.38983E+05 -0.47875E+04 -0.10321E+04
  _____________________________________________________________________________


     Iteration No.  1     Error (root-mean-square value)=  0.2042E-01

     Iteration No.  2     Error (root-mean-square value)=  0.3959E-02

     Iteration No.  3     Error (root-mean-square value)=  0.8629E-03

     S O L U T I O N :


     LOAD, FS................................= -0.2100E+02
  __________________________________________________

     Node    x-coord.      y-coord.     U      V  
  __________________________________________________

       1   0.00000E+00   0.00000E+00   0.00000E+00   0.00000E+00
       2   0.92592E+00  -0.16107E+00  -0.74082E-01  -0.16107E+00
       3   0.18755E+01  -0.44424E+00  -0.12450E+00  -0.44424E+00
       4   0.28443E+01  -0.78178E+00  -0.15569E+00  -0.78178E+00
       5   0.38265E+01  -0.11234E+01  -0.17347E+00  -0.11234E+01
       6   0.48273E+01  -0.14385E+01  -0.17265E+00  -0.14385E+01
       7   0.58427E+01  -0.17083E+01  -0.15726E+00  -0.17083E+01
       8   0.68711E+01  -0.19235E+01  -0.12891E+00  -0.19235E+01
       9   0.79089E+01  -0.20793E+01  -0.91127E-01  -0.20793E+01
      10   0.89529E+01  -0.21734E+01  -0.47116E-01  -0.21734E+01
      11   0.10000E+02  -0.22048E+01   0.00000E+00  -0.22048E+01
      12   0.00000E+00   0.50000E+00   0.00000E+00   0.00000E+00
      13   0.10249E+01   0.32914E+00   0.24915E-01  -0.17086E+00
      14   0.20172E+01   0.33071E-01   0.17208E-01  -0.46693E+00
      15   0.29937E+01  -0.30762E+00  -0.63171E-02  -0.80762E+00
      16   0.39684E+01  -0.64814E+00  -0.31594E-01  -0.11481E+01
      17   0.49508E+01  -0.95829E+00  -0.49161E-01  -0.14583E+01
      18   0.59440E+01  -0.12231E+01  -0.55994E-01  -0.17231E+01
      19   0.69478E+01  -0.14336E+01  -0.52241E-01  -0.19336E+01
      20   0.79601E+01  -0.15861E+01  -0.39851E-01  -0.20861E+01
      21   0.89786E+01  -0.16781E+01  -0.21446E-01  -0.21781E+01
      22   0.10000E+02  -0.17089E+01   0.00000E+00  -0.22089E+01
      23   0.00000E+00   0.10000E+01   0.00000E+00   0.00000E+00
      24   0.11005E+01   0.81442E+00   0.10050E+00  -0.18558E+00
      25   0.21496E+01   0.51199E+00   0.14959E+00  -0.48801E+00
      26   0.31421E+01   0.16515E+00   0.14207E+00  -0.83485E+00
      27   0.41156E+01  -0.17359E+00   0.11559E+00  -0.11736E+01
      28   0.50824E+01  -0.47892E+00   0.82360E-01  -0.14789E+01
      29   0.60539E+01  -0.73782E+00   0.53924E-01  -0.17378E+01
      30   0.70322E+01  -0.94299E+00   0.32236E-01  -0.19430E+01
      31   0.80173E+01  -0.10914E+01   0.17273E-01  -0.20914E+01
      32   0.90073E+01  -0.11807E+01   0.73392E-02  -0.21807E+01
      33   0.10000E+02  -0.12108E+01   0.00000E+00  -0.22108E+01
  __________________________________________________

  _____________________________________________________________________________

            x-coord.     y-coord.     SigmaXX     SigmaYY     SigmaXY
                                        SXX         SYY          SXY
  _____________________________________________________________________________

    1     0.41080E+00  0.15698E+00 -0.20675E+06 -0.78053E+04 -0.69759E+05
                                   -0.13351E+06 -0.16318E+05 -0.74240E+05
    1     0.45869E+00  0.72798E+00  0.50496E+06  0.25085E+05 -0.13260E+06
                                    0.72670E+06  0.27497E+05 -0.12426E+06
    1     0.15289E+01 -0.10515E+00  0.11188E+05  0.29886E+05 -0.42430E+05
                                    0.87950E+05  0.12805E+05 -0.44306E+05
    1     0.16681E+01  0.45126E+00  0.28499E+06  0.35056E+05 -0.12604E+06
                                    0.53101E+06  0.62131E+04 -0.97828E+05
    2     0.23461E+01 -0.38544E+00  0.10718E+06  0.29949E+05 -0.60062E+05
                                    0.22109E+06  0.66752E+04 -0.46710E+05
    2     0.25124E+01  0.16352E+00  0.17972E+06  0.37262E+05 -0.86952E+05
                                    0.35229E+06  0.74437E+04 -0.64572E+05
    2     0.34715E+01 -0.77790E+00  0.16180E+06  0.31260E+05 -0.68669E+05
                                    0.29312E+06  0.66227E+04 -0.47919E+05
    2     0.36428E+01 -0.23107E+00  0.13107E+06  0.19805E+05 -0.57611E+05
                                    0.23602E+06 -0.12919E+04 -0.37683E+05
    3     0.43038E+01 -0.10602E+01  0.19985E+06  0.27768E+05 -0.70612E+05
                                    0.32749E+06  0.58920E+04 -0.47130E+05
    3     0.44631E+01 -0.50957E+00  0.98724E+05  0.12708E+05 -0.40555E+05
                                    0.16484E+06 -0.15519E+04 -0.26544E+05
    3     0.54577E+01 -0.13955E+01  0.22563E+06  0.19800E+05 -0.64382E+05
                                    0.32786E+06  0.43580E+04 -0.42769E+05
    3     0.55910E+01 -0.83799E+00  0.78721E+05  0.35803E+04 -0.26273E+05
                                    0.11321E+06 -0.40529E+04 -0.16376E+05
    4     0.63136E+01 -0.16006E+01  0.24346E+06  0.14418E+05 -0.55809E+05
                                    0.32271E+06  0.42735E+04 -0.37203E+05
    4     0.64235E+01 -0.10376E+01  0.65735E+05  0.47915E+03 -0.18439E+05
                                    0.85649E+05 -0.39407E+04 -0.11638E+05
    4     0.74945E+01 -0.18129E+01  0.25993E+06  0.74148E+04 -0.40388E+05
                                    0.31001E+06  0.35665E+04 -0.27106E+05
    4     0.75702E+01 -0.12442E+01  0.53415E+05 -0.30149E+04 -0.10812E+05
                                    0.61662E+05 -0.47414E+04 -0.68446E+04
    5     0.83663E+01 -0.19180E+01  0.26833E+06  0.38445E+04 -0.27154E+05
                                    0.30229E+06  0.33730E+04 -0.18336E+05
    5     0.84157E+01 -0.13462E+01  0.47504E+05 -0.41433E+04 -0.63613E+04
                                    0.50983E+05 -0.47463E+04 -0.40284E+04
    5     0.95615E+01 -0.19899E+01  0.27429E+06  0.12061E+04 -0.73805E+04
                                    0.29653E+06  0.31560E+04 -0.49810E+04
    5     0.95748E+01 -0.14160E+01  0.43037E+05 -0.50145E+04 -0.17006E+04
                                    0.43778E+05 -0.49650E+04 -0.11161E+04
  _____________________________________________________________________________


     Iteration No.  1     Error (root-mean-square value)=  0.1935E-01

     Iteration No.  2     Error (root-mean-square value)=  0.3878E-02

     Iteration No.  3     Error (root-mean-square value)=  0.8671E-03

     S O L U T I O N :


     LOAD, FS................................= -0.2200E+02
  __________________________________________________

     Node    x-coord.      y-coord.     U      V  
  __________________________________________________

       1   0.00000E+00   0.00000E+00   0.00000E+00   0.00000E+00
       2   0.92404E+00  -0.16682E+00  -0.75964E-01  -0.16682E+00
       3   0.18723E+01  -0.45854E+00  -0.12768E+00  -0.45854E+00
       4   0.28404E+01  -0.80504E+00  -0.15964E+00  -0.80504E+00
       5   0.38222E+01  -0.11547E+01  -0.17781E+00  -0.11547E+01
       6   0.48231E+01  -0.14762E+01  -0.17688E+00  -0.14762E+01
       7   0.58390E+01  -0.17511E+01  -0.16100E+00  -0.17511E+01
       8   0.68681E+01  -0.19701E+01  -0.13192E+00  -0.19701E+01
       9   0.79068E+01  -0.21285E+01  -0.93213E-01  -0.21285E+01
      10   0.89518E+01  -0.22242E+01  -0.48185E-01  -0.22242E+01
      11   0.10000E+02  -0.22560E+01   0.00000E+00  -0.22560E+01
      12   0.00000E+00   0.50000E+00   0.00000E+00   0.00000E+00
      13   0.10260E+01   0.32268E+00   0.25973E-01  -0.17732E+00
      14   0.20175E+01   0.17589E-01   0.17466E-01  -0.48241E+00
      15   0.29927E+01  -0.33203E+00  -0.72880E-02  -0.83203E+00
      16   0.39665E+01  -0.68026E+00  -0.33535E-01  -0.11803E+01
      17   0.49484E+01  -0.99665E+00  -0.51574E-01  -0.14967E+01
      18   0.59416E+01  -0.12663E+01  -0.58416E-01  -0.17663E+01
      19   0.69457E+01  -0.14805E+01  -0.54329E-01  -0.19805E+01
      20   0.79586E+01  -0.16354E+01  -0.41367E-01  -0.21354E+01
      21   0.89778E+01  -0.17289E+01  -0.22239E-01  -0.22289E+01
      22   0.10000E+02  -0.17602E+01   0.00000E+00  -0.22602E+01
      23   0.00000E+00   0.10000E+01   0.00000E+00   0.00000E+00
      24   0.11034E+01   0.80748E+00   0.10337E+00  -0.19252E+00
      25   0.21533E+01   0.49547E+00   0.15329E+00  -0.50453E+00
      26   0.31443E+01   0.13953E+00   0.14430E+00  -0.86047E+00
      27   0.41163E+01  -0.20672E+00   0.11634E+00  -0.12067E+01
      28   0.50821E+01  -0.51803E+00   0.82060E-01  -0.15180E+01
      29   0.60531E+01  -0.78155E+00   0.53083E-01  -0.17816E+01
      30   0.70313E+01  -0.99017E+00   0.31291E-01  -0.19902E+01
      31   0.80165E+01  -0.11410E+01   0.16494E-01  -0.21410E+01
      32   0.90069E+01  -0.12317E+01   0.69103E-02  -0.22317E+01
      33   0.10000E+02  -0.12622E+01   0.00000E+00  -0.22622E+01
  __________________________________________________

  _____________________________________________________________________________

            x-coord.     y-coord.     SigmaXX     SigmaYY     SigmaXY
                                        SXX         SYY          SXY
  _____________________________________________________________________________

    1     0.41068E+00  0.15474E+00 -0.20878E+06 -0.76440E+04 -0.73166E+05
                                   -0.12980E+06 -0.16876E+05 -0.77697E+05
    1     0.45991E+00  0.72544E+00  0.51704E+06  0.26542E+05 -0.13879E+06
                                    0.75625E+06  0.29260E+05 -0.13032E+06
    1     0.15277E+01 -0.11595E+00  0.16554E+05  0.32030E+05 -0.44693E+05
                                    0.99731E+05  0.13650E+05 -0.46200E+05
    1     0.16706E+01  0.43942E+00  0.28933E+06  0.38042E+05 -0.13121E+06
                                    0.55335E+06  0.72876E+04 -0.10193E+06
    2     0.23439E+01 -0.40415E+00  0.11367E+06  0.32177E+05 -0.63493E+05
                                    0.23753E+06  0.71614E+04 -0.48956E+05
    2     0.25140E+01  0.14344E+00  0.18280E+06  0.39494E+05 -0.90022E+05
                                    0.36638E+06  0.79035E+04 -0.66620E+05
    2     0.34684E+01 -0.80630E+00  0.16801E+06  0.33227E+05 -0.72135E+05
                                    0.30947E+06  0.69814E+04 -0.50091E+05
    2     0.36429E+01 -0.26073E+00  0.13482E+06  0.20914E+05 -0.59934E+05
                                    0.24644E+06 -0.13988E+04 -0.38866E+05
    3     0.43003E+01 -0.10947E+01  0.20600E+06  0.29426E+05 -0.73814E+05
                                    0.34252E+06  0.62683E+04 -0.49169E+05
    3     0.44623E+01 -0.54500E+00  0.10290E+06  0.13503E+05 -0.42495E+05
                                    0.17359E+06 -0.16360E+04 -0.27562E+05
    3     0.54543E+01 -0.14366E+01  0.23183E+06  0.20935E+05 -0.67083E+05
                                    0.34054E+06  0.46752E+04 -0.44561E+05
    3     0.55896E+01 -0.87967E+00  0.83216E+05  0.39193E+04 -0.27828E+05
                                    0.12045E+06 -0.42447E+04 -0.17189E+05
    4     0.63106E+01 -0.16452E+01  0.24970E+06  0.15211E+05 -0.58052E+05
                                    0.33369E+06  0.45589E+04 -0.38734E+05
    4     0.64220E+01 -0.10827E+01  0.70436E+05  0.64864E+03 -0.19701E+05
                                    0.92125E+05 -0.41093E+04 -0.12324E+05
    4     0.74923E+01 -0.18612E+01  0.26646E+06  0.78469E+04 -0.41969E+05
                                    0.31938E+06  0.38192E+04 -0.28214E+05
    4     0.75689E+01 -0.12927E+01  0.58075E+05 -0.30501E+04 -0.11660E+05
                                    0.67170E+05 -0.49194E+04 -0.73216E+04
    5     0.83648E+01 -0.19680E+01  0.27499E+06  0.40774E+04 -0.28208E+05
                                    0.31080E+06  0.35907E+04 -0.19085E+05
    5     0.84148E+01 -0.13964E+01  0.52168E+05 -0.42689E+04 -0.69038E+04
                                    0.56063E+05 -0.49206E+04 -0.43367E+04
    5     0.95611E+01 -0.20411E+01  0.28110E+06  0.13083E+04 -0.76661E+04
                                    0.30450E+06  0.33575E+04 -0.51850E+04
    5     0.95745E+01 -0.14673E+01  0.47639E+05 -0.52019E+04 -0.18474E+04
                                    0.48519E+05 -0.51398E+04 -0.12017E+04
  _____________________________________________________________________________


     Iteration No.  1     Error (root-mean-square value)=  0.1839E-01

     Iteration No.  2     Error (root-mean-square value)=  0.3800E-02

     Iteration No.  3     Error (root-mean-square value)=  0.8707E-03

     S O L U T I O N :


     LOAD, FS................................= -0.2300E+02
  __________________________________________________

     Node    x-coord.      y-coord.     U      V  
  __________________________________________________

       1   0.00000E+00   0.00000E+00   0.00000E+00   0.00000E+00
       2   0.92220E+00  -0.17253E+00  -0.77796E-01  -0.17253E+00
       3   0.18692E+01  -0.47266E+00  -0.13078E+00  -0.47266E+00
       4   0.28365E+01  -0.82793E+00  -0.16351E+00  -0.82793E+00
       5   0.38180E+01  -0.11853E+01  -0.18204E+00  -0.11853E+01
       6   0.48190E+01  -0.15132E+01  -0.18100E+00  -0.15132E+01
       7   0.58354E+01  -0.17930E+01  -0.16465E+00  -0.17930E+01
       8   0.68652E+01  -0.20157E+01  -0.13485E+00  -0.20157E+01
       9   0.79048E+01  -0.21766E+01  -0.95247E-01  -0.21766E+01
      10   0.89508E+01  -0.22738E+01  -0.49228E-01  -0.22738E+01
      11   0.10000E+02  -0.23062E+01   0.00000E+00  -0.23062E+01
      12   0.00000E+00   0.50000E+00   0.00000E+00   0.00000E+00
      13   0.10270E+01   0.31627E+00   0.27025E-01  -0.18373E+00
      14   0.20177E+01   0.22867E-02   0.17699E-01  -0.49771E+00
      15   0.29917E+01  -0.35606E+00  -0.82781E-02  -0.85606E+00
      16   0.39645E+01  -0.71181E+00  -0.35470E-01  -0.12118E+01
      17   0.49460E+01  -0.10343E+01  -0.53960E-01  -0.15343E+01
      18   0.59392E+01  -0.13086E+01  -0.60803E-01  -0.18086E+01
      19   0.69436E+01  -0.15263E+01  -0.56382E-01  -0.20263E+01
      20   0.79571E+01  -0.16837E+01  -0.42855E-01  -0.21837E+01
      21   0.89770E+01  -0.17786E+01  -0.23018E-01  -0.22786E+01
      22   0.10000E+02  -0.18104E+01   0.00000E+00  -0.23104E+01
      23   0.00000E+00   0.10000E+01   0.00000E+00   0.00000E+00
      24   0.11062E+01   0.80059E+00   0.10619E+00  -0.19941E+00
      25   0.21569E+01   0.47911E+00   0.15690E+00  -0.52089E+00
      26   0.31464E+01   0.11429E+00   0.14640E+00  -0.88571E+00
      27   0.41170E+01  -0.23925E+00   0.11699E+00  -0.12393E+01
      28   0.50817E+01  -0.55637E+00   0.81698E-01  -0.15564E+01
      29   0.60522E+01  -0.82438E+00   0.52213E-01  -0.18244E+01
      30   0.70303E+01  -0.10363E+01   0.30335E-01  -0.20363E+01
      31   0.80157E+01  -0.11895E+01   0.15715E-01  -0.21895E+01
      32   0.90065E+01  -0.12815E+01   0.64829E-02  -0.22815E+01
      33   0.10000E+02  -0.13125E+01   0.00000E+00  -0.23125E+01
  __________________________________________________

  _____________________________________________________________________________

            x-coord.     y-coord.     SigmaXX     SigmaYY     SigmaXY
                                        SXX         SYY          SXY
  _____________________________________________________________________________

    1     0.41057E+00  0.15250E+00 -0.21061E+06 -0.74446E+04 -0.76598E+05
                                   -0.12566E+06 -0.17419E+05 -0.81162E+05
    1     0.46112E+00  0.72291E+00  0.52866E+06  0.28031E+05 -0.14495E+06
                                    0.78587E+06  0.31076E+05 -0.13639E+06
    1     0.15266E+01 -0.12663E+00  0.21941E+05  0.34230E+05 -0.46980E+05
                                    0.11180E+06  0.14516E+05 -0.48092E+05
    1     0.16731E+01  0.42769E+00  0.29337E+06  0.41097E+05 -0.13631E+06
                                    0.57579E+06  0.84105E+04 -0.10600E+06
    2     0.23417E+01 -0.42261E+00  0.12002E+06  0.34458E+05 -0.66946E+05
                                    0.25423E+06  0.76633E+04 -0.51208E+05
    2     0.25156E+01  0.12362E+00  0.18576E+06  0.41739E+05 -0.93032E+05
                                    0.38046E+06  0.83665E+04 -0.68612E+05
    2     0.34653E+01 -0.83421E+00  0.17404E+06  0.35219E+05 -0.75588E+05
                                    0.32588E+06  0.73520E+04 -0.52255E+05
    2     0.36429E+01 -0.28988E+00  0.13851E+06  0.22036E+05 -0.62255E+05
                                    0.25692E+06 -0.15040E+04 -0.40036E+05
    3     0.42969E+01 -0.11285E+01  0.21194E+06  0.31099E+05 -0.76986E+05
                                    0.35748E+06  0.66577E+04 -0.51196E+05
    3     0.44614E+01 -0.57977E+00  0.10704E+06  0.14318E+05 -0.44451E+05
                                    0.18244E+06 -0.17155E+04 -0.28586E+05
    3     0.54510E+01 -0.14768E+01  0.23782E+06  0.22079E+05 -0.69756E+05
                                    0.35310E+06  0.50035E+04 -0.46345E+05
    3     0.55881E+01 -0.92049E+00  0.87671E+05  0.42766E+04 -0.29406E+05
                                    0.12774E+06 -0.44306E+04 -0.18016E+05
    4     0.63077E+01 -0.16890E+01  0.25573E+06  0.16011E+05 -0.60272E+05
                                    0.34452E+06  0.48523E+04 -0.40260E+05
    4     0.64205E+01 -0.11269E+01  0.75089E+05  0.83088E+03 -0.20983E+05
                                    0.98622E+05 -0.42735E+04 -0.13023E+05
    4     0.74901E+01 -0.19085E+01  0.27281E+06  0.82833E+04 -0.43538E+05
                                    0.32860E+06  0.40766E+04 -0.29319E+05
    4     0.75676E+01 -0.13403E+01  0.62679E+05 -0.30782E+04 -0.12520E+05
                                    0.72658E+05 -0.50936E+04 -0.78076E+04
    5     0.83633E+01 -0.20170E+01  0.28147E+06  0.43129E+04 -0.29254E+05
                                    0.31915E+06  0.38111E+04 -0.19832E+05
    5     0.84139E+01 -0.14456E+01  0.56768E+05 -0.43909E+04 -0.74537E+04
                                    0.61100E+05 -0.50918E+04 -0.46509E+04
    5     0.95607E+01 -0.20911E+01  0.28773E+06  0.14115E+04 -0.79500E+04
                                    0.31230E+06  0.35601E+04 -0.53889E+04
    5     0.95743E+01 -0.15175E+01  0.52175E+05 -0.53878E+04 -0.19959E+04
                                    0.53204E+05 -0.53119E+04 -0.12886E+04
  _____________________________________________________________________________


     Iteration No.  1     Error (root-mean-square value)=  0.1752E-01

     Iteration No.  2     Error (root-mean-square value)=  0.3726E-02

     Iteration No.  3     Error (root-mean-square value)=  0.8739E-03

     S O L U T I O N :


     LOAD, FS................................= -0.2400E+02
  __________________________________________________

     Node    x-coord.      y-coord.     U      V  
  __________________________________________________

       1   0.00000E+00   0.00000E+00   0.00000E+00   0.00000E+00
       2   0.92042E+00  -0.17819E+00  -0.79580E-01  -0.17819E+00
       3   0.18662E+01  -0.48662E+00  -0.13381E+00  -0.48662E+00
       4   0.28327E+01  -0.85050E+00  -0.16729E+00  -0.85050E+00
       5   0.38138E+01  -0.12155E+01  -0.18617E+00  -0.12155E+01
       6   0.48150E+01  -0.15495E+01  -0.18502E+00  -0.15495E+01
       7   0.58318E+01  -0.18341E+01  -0.16821E+00  -0.18341E+01
       8   0.68623E+01  -0.20604E+01  -0.13771E+00  -0.20604E+01
       9   0.79028E+01  -0.22238E+01  -0.97233E-01  -0.22238E+01
      10   0.89498E+01  -0.23224E+01  -0.50246E-01  -0.23224E+01
      11   0.10000E+02  -0.23553E+01   0.00000E+00  -0.23553E+01
      12   0.00000E+00   0.50000E+00   0.00000E+00   0.00000E+00
      13   0.10281E+01   0.30990E+00   0.28071E-01  -0.19010E+00
      14   0.20179E+01  -0.12847E-01   0.17908E-01  -0.51285E+00
      15   0.29907E+01  -0.37975E+00  -0.92848E-02  -0.87975E+00
      16   0.39626E+01  -0.74281E+00  -0.37399E-01  -0.12428E+01
      17   0.49437E+01  -0.10712E+01  -0.56321E-01  -0.15712E+01
      18   0.59368E+01  -0.13501E+01  -0.63154E-01  -0.18501E+01
      19   0.69416E+01  -0.15713E+01  -0.58401E-01  -0.20713E+01
      20   0.79557E+01  -0.17311E+01  -0.44317E-01  -0.22311E+01
      21   0.89762E+01  -0.18274E+01  -0.23782E-01  -0.23274E+01
      22   0.10000E+02  -0.18596E+01   0.00000E+00  -0.23596E+01
      23   0.00000E+00   0.10000E+01   0.00000E+00   0.00000E+00
      24   0.11090E+01   0.79376E+00   0.10896E+00  -0.20624E+00
      25   0.21604E+01   0.46292E+00   0.16043E+00  -0.53708E+00
      26   0.31484E+01   0.89406E-01   0.14840E+00  -0.91059E+00
      27   0.41176E+01  -0.27124E+00   0.11755E+00  -0.12712E+01
      28   0.50813E+01  -0.59400E+00   0.81283E-01  -0.15940E+01
      29   0.60513E+01  -0.86637E+00   0.51318E-01  -0.18664E+01
      30   0.70294E+01  -0.10816E+01   0.29373E-01  -0.20816E+01
      31   0.80149E+01  -0.12370E+01   0.14937E-01  -0.22370E+01
      32   0.90061E+01  -0.13304E+01   0.60575E-02  -0.23304E+01
      33   0.10000E+02  -0.13618E+01   0.00000E+00  -0.23618E+01
  __________________________________________________

  _____________________________________________________________________________

            x-coord.     y-coord.     SigmaXX     SigmaYY     SigmaXY
                                        SXX         SYY          SXY
  _____________________________________________________________________________

    1     0.41047E+00  0.15027E+00 -0.21224E+06 -0.72071E+04 -0.80055E+05
                                   -0.12111E+06 -0.17946E+05 -0.84637E+05
    1     0.46231E+00  0.72038E+00  0.53983E+06  0.29551E+05 -0.15107E+06
                                    0.81555E+06  0.32946E+05 -0.14245E+06
    1     0.15256E+01 -0.13722E+00  0.27341E+05  0.36484E+05 -0.49288E+05
                                    0.12415E+06  0.15402E+05 -0.49984E+05
    1     0.16755E+01  0.41607E+00  0.29712E+06  0.44217E+05 -0.14132E+06
                                    0.59834E+06  0.95803E+04 -0.11002E+06
    2     0.23396E+01 -0.44083E+00  0.12625E+06  0.36791E+05 -0.70418E+05
                                    0.27119E+06  0.81811E+04 -0.53465E+05
    2     0.25171E+01  0.10405E+00  0.18860E+06  0.43995E+05 -0.95988E+05
                                    0.39456E+06  0.88325E+04 -0.70551E+05
    2     0.34623E+01 -0.86169E+00  0.17988E+06  0.37235E+05 -0.79029E+05
                                    0.34235E+06  0.77354E+04 -0.54411E+05
    2     0.36429E+01 -0.31858E+00  0.14213E+06  0.23172E+05 -0.64575E+05
                                    0.26747E+06 -0.16069E+04 -0.41195E+05
    3     0.42936E+01 -0.11617E+01  0.21768E+06  0.32787E+05 -0.80130E+05
                                    0.37238E+06  0.70602E+04 -0.53213E+05
    3     0.44605E+01 -0.61391E+00  0.11114E+06  0.15153E+05 -0.46425E+05
                                    0.19137E+06 -0.17901E+04 -0.29617E+05
    3     0.54478E+01 -0.15162E+01  0.24362E+06  0.23233E+05 -0.72403E+05
                                    0.36554E+06  0.53430E+04 -0.48120E+05
    3     0.55866E+01 -0.96053E+00  0.92085E+05  0.46519E+04 -0.31004E+05
                                    0.13508E+06 -0.46104E+04 -0.18856E+05
    4     0.63048E+01 -0.17319E+01  0.26159E+06  0.16818E+05 -0.62472E+05
                                    0.35522E+06  0.51536E+04 -0.41780E+05
    4     0.64190E+01 -0.11702E+01  0.79692E+05  0.10256E+04 -0.22281E+05
                                    0.10514E+06 -0.44331E+04 -0.13734E+05
    4     0.74880E+01 -0.19548E+01  0.27897E+06  0.87237E+04 -0.45094E+05
                                    0.33766E+06  0.43384E+04 -0.30423E+05
    4     0.75663E+01 -0.13868E+01  0.67226E+05 -0.30996E+04 -0.13390E+05
                                    0.78125E+05 -0.52640E+04 -0.83022E+04
    5     0.83619E+01 -0.20649E+01  0.28778E+06  0.45509E+04 -0.30294E+05
                                    0.32734E+06  0.40340E+04 -0.20578E+05
    5     0.84131E+01 -0.14937E+01  0.61305E+05 -0.45093E+04 -0.80102E+04
                                    0.66095E+05 -0.52600E+04 -0.49706E+04
    5     0.95603E+01 -0.21402E+01  0.29421E+06  0.15157E+04 -0.82324E+04
                                    0.31994E+06  0.37636E+04 -0.55930E+04
    5     0.95740E+01 -0.15667E+01  0.56644E+05 -0.55723E+04 -0.21460E+04
                                    0.57833E+05 -0.54816E+04 -0.13769E+04
  _____________________________________________________________________________


     Iteration No.  1     Error (root-mean-square value)=  0.1672E-01

     Iteration No.  2     Error (root-mean-square value)=  0.3655E-02

     Iteration No.  3     Error (root-mean-square value)=  0.8766E-03

     S O L U T I O N :


     LOAD, FS................................= -0.2500E+02
  __________________________________________________

     Node    x-coord.      y-coord.     U      V  
  __________________________________________________

       1   0.00000E+00   0.00000E+00   0.00000E+00   0.00000E+00
       2   0.91868E+00  -0.18381E+00  -0.81318E-01  -0.18381E+00
       3   0.18632E+01  -0.50042E+00  -0.13678E+00  -0.50042E+00
       4   0.28290E+01  -0.87275E+00  -0.17099E+00  -0.87275E+00
       5   0.38098E+01  -0.12451E+01  -0.19022E+00  -0.12451E+01
       6   0.48110E+01  -0.15852E+01  -0.18895E+00  -0.15852E+01
       7   0.58283E+01  -0.18745E+01  -0.17168E+00  -0.18745E+01
       8   0.68595E+01  -0.21042E+01  -0.14051E+00  -0.21042E+01
       9   0.79008E+01  -0.22700E+01  -0.99174E-01  -0.22700E+01
      10   0.89488E+01  -0.23701E+01  -0.51241E-01  -0.23701E+01
      11   0.10000E+02  -0.24034E+01   0.00000E+00  -0.24034E+01
      12   0.00000E+00   0.50000E+00   0.00000E+00   0.00000E+00
      13   0.10291E+01   0.30356E+00   0.29111E-01  -0.19644E+00
      14   0.20181E+01  -0.27824E-01   0.18096E-01  -0.52782E+00
      15   0.29897E+01  -0.40312E+00  -0.10306E-01  -0.90312E+00
      16   0.39607E+01  -0.77332E+00  -0.39319E-01  -0.12733E+01
      17   0.49413E+01  -0.11074E+01  -0.58655E-01  -0.16074E+01
      18   0.59345E+01  -0.13908E+01  -0.65471E-01  -0.18908E+01
      19   0.69396E+01  -0.16153E+01  -0.60387E-01  -0.21153E+01
      20   0.79542E+01  -0.17775E+01  -0.45754E-01  -0.22775E+01
      21   0.89755E+01  -0.18752E+01  -0.24533E-01  -0.23752E+01
      22   0.10000E+02  -0.19078E+01   0.00000E+00  -0.24078E+01
      23   0.00000E+00   0.10000E+01   0.00000E+00   0.00000E+00
      24   0.11117E+01   0.78697E+00   0.11170E+00  -0.21303E+00
      25   0.21639E+01   0.44687E+00   0.16387E+00  -0.55313E+00
      26   0.31503E+01   0.64850E-01   0.15029E+00  -0.93515E+00
      27   0.41180E+01  -0.30270E+00   0.11803E+00  -0.13027E+01
      28   0.50808E+01  -0.63096E+00   0.80821E-01  -0.16310E+01
      29   0.60504E+01  -0.90758E+00   0.50404E-01  -0.19076E+01
      30   0.70284E+01  -0.11260E+01   0.28407E-01  -0.21260E+01
      31   0.80142E+01  -0.12836E+01   0.14161E-01  -0.22836E+01
      32   0.90056E+01  -0.13783E+01   0.56349E-02  -0.23783E+01
      33   0.10000E+02  -0.14102E+01   0.00000E+00  -0.24102E+01
  __________________________________________________

  _____________________________________________________________________________

            x-coord.     y-coord.     SigmaXX     SigmaYY     SigmaXY
                                        SXX         SYY          SXY
  _____________________________________________________________________________

    1     0.41038E+00  0.14805E+00 -0.21369E+06 -0.69316E+04 -0.83538E+05
                                   -0.11615E+06 -0.18457E+05 -0.88121E+05
    1     0.46350E+00  0.71786E+00  0.55058E+06  0.31101E+05 -0.15715E+06
                                    0.84534E+06  0.34869E+05 -0.14851E+06
    1     0.15245E+01 -0.14770E+00  0.32748E+05  0.38791E+05 -0.51616E+05
                                    0.13677E+06  0.16308E+05 -0.51875E+05
    1     0.16779E+01  0.40454E+00  0.30060E+06  0.47400E+05 -0.14625E+06
                                    0.62100E+06  0.10796E+05 -0.11401E+06
    2     0.23375E+01 -0.45883E+00  0.13235E+06  0.39173E+05 -0.73907E+05
                                    0.28839E+06  0.87154E+04 -0.55725E+05
    2     0.25185E+01  0.84701E-01  0.19133E+06  0.46261E+05 -0.98891E+05
                                    0.40867E+06  0.93013E+04 -0.72439E+05
    2     0.34593E+01 -0.88875E+00  0.18556E+06  0.39275E+05 -0.82454E+05
                                    0.35888E+06  0.81319E+04 -0.56560E+05
    2     0.36428E+01 -0.34684E+00  0.14570E+06  0.24322E+05 -0.66896E+05
                                    0.27809E+06 -0.17067E+04 -0.42345E+05
    3     0.42903E+01 -0.11944E+01  0.22323E+06  0.34489E+05 -0.83246E+05
                                    0.38723E+06  0.74760E+04 -0.55220E+05
    3     0.44596E+01 -0.64748E+00  0.11520E+06  0.16008E+05 -0.48416E+05
                                    0.20040E+06 -0.18591E+04 -0.30655E+05
    3     0.54446E+01 -0.15549E+01  0.24923E+06  0.24396E+05 -0.75024E+05
                                    0.37786E+06  0.56934E+04 -0.49888E+05
    3     0.55851E+01 -0.99984E+00  0.96457E+05  0.50451E+04 -0.32622E+05
                                    0.14248E+06 -0.47840E+04 -0.19709E+05
    4     0.63020E+01 -0.17740E+01  0.26726E+06  0.17631E+05 -0.64653E+05
                                    0.36578E+06  0.54627E+04 -0.43296E+05
    4     0.64174E+01 -0.12127E+01  0.84245E+05  0.12325E+04 -0.23595E+05
                                    0.11167E+06 -0.45880E+04 -0.14457E+05
    4     0.74859E+01 -0.20003E+01  0.28498E+06  0.91682E+04 -0.46640E+05
                                    0.34659E+06  0.46046E+04 -0.31524E+05
    4     0.75651E+01 -0.14325E+01  0.71717E+05 -0.31144E+04 -0.14271E+05
                                    0.83569E+05 -0.54308E+04 -0.88046E+04
    5     0.83605E+01 -0.21120E+01  0.29393E+06  0.47913E+04 -0.31327E+05
                                    0.33538E+06  0.42593E+04 -0.21325E+05
    5     0.84122E+01 -0.15409E+01  0.65779E+05 -0.46244E+04 -0.85728E+04
                                    0.71045E+05 -0.54255E+04 -0.52953E+04
    5     0.95599E+01 -0.21883E+01  0.30053E+06  0.16208E+04 -0.85134E+04
                                    0.32743E+06  0.39678E+04 -0.57971E+04
    5     0.95738E+01 -0.16149E+01  0.61047E+05 -0.57555E+04 -0.22974E+04
                                    0.62404E+05 -0.56490E+04 -0.14663E+04
  _____________________________________________________________________________


     Iteration No.  1     Error (root-mean-square value)=  0.1599E-01

     Iteration No.  2     Error (root-mean-square value)=  0.3588E-02

     Iteration No.  3     Error (root-mean-square value)=  0.8790E-03

     S O L U T I O N :


     LOAD, FS................................= -0.2600E+02
  __________________________________________________

     Node    x-coord.      y-coord.     U      V  
  __________________________________________________

       1   0.00000E+00   0.00000E+00   0.00000E+00   0.00000E+00
       2   0.91699E+00  -0.18939E+00  -0.83012E-01  -0.18939E+00
       3   0.18603E+01  -0.51407E+00  -0.13969E+00  -0.51407E+00
       4   0.28254E+01  -0.89472E+00  -0.17461E+00  -0.89472E+00
       5   0.38058E+01  -0.12743E+01  -0.19417E+00  -0.12743E+01
       6   0.48072E+01  -0.16202E+01  -0.19280E+00  -0.16202E+01
       7   0.58249E+01  -0.19141E+01  -0.17509E+00  -0.19141E+01
       8   0.68568E+01  -0.21473E+01  -0.14324E+00  -0.21473E+01
       9   0.78989E+01  -0.23155E+01  -0.10107E+00  -0.23155E+01
      10   0.89478E+01  -0.24169E+01  -0.52214E-01  -0.24169E+01
      11   0.10000E+02  -0.24507E+01   0.00000E+00  -0.24507E+01
      12   0.00000E+00   0.50000E+00   0.00000E+00   0.00000E+00
      13   0.10301E+01   0.29725E+00   0.30146E-01  -0.20275E+00
      14   0.20183E+01  -0.42654E-01   0.18264E-01  -0.54265E+00
      15   0.29887E+01  -0.42618E+00  -0.11340E-01  -0.92618E+00
      16   0.39588E+01  -0.80336E+00  -0.41229E-01  -0.13034E+01
      17   0.49390E+01  -0.11431E+01  -0.60963E-01  -0.16431E+01
      18   0.59322E+01  -0.14309E+01  -0.67754E-01  -0.19309E+01
      19   0.69377E+01  -0.16586E+01  -0.62341E-01  -0.21586E+01
      20   0.79528E+01  -0.18231E+01  -0.47166E-01  -0.23231E+01
      21   0.89747E+01  -0.19221E+01  -0.25271E-01  -0.24221E+01
      22   0.10000E+02  -0.19552E+01   0.00000E+00  -0.24552E+01
      23   0.00000E+00   0.10000E+01   0.00000E+00   0.00000E+00
      24   0.11144E+01   0.78022E+00   0.11439E+00  -0.21978E+00
      25   0.21672E+01   0.43096E+00   0.16725E+00  -0.56904E+00
      26   0.31521E+01   0.40603E-01   0.15209E+00  -0.95940E+00
      27   0.41184E+01  -0.33369E+00   0.11843E+00  -0.13337E+01
      28   0.50803E+01  -0.66731E+00   0.80318E-01  -0.16673E+01
      29   0.60495E+01  -0.94807E+00   0.49474E-01  -0.19481E+01
      30   0.70274E+01  -0.11696E+01   0.27440E-01  -0.21696E+01
      31   0.80134E+01  -0.13294E+01   0.13390E-01  -0.23294E+01
      32   0.90052E+01  -0.14254E+01   0.52154E-02  -0.24254E+01
      33   0.10000E+02  -0.14576E+01   0.00000E+00  -0.24576E+01
  __________________________________________________

  _____________________________________________________________________________

            x-coord.     y-coord.     SigmaXX     SigmaYY     SigmaXY
                                        SXX         SYY          SXY
  _____________________________________________________________________________

    1     0.41031E+00  0.14583E+00 -0.21498E+06 -0.66181E+04 -0.87047E+05
                                   -0.11079E+06 -0.18950E+05 -0.91616E+05
    1     0.46467E+00  0.71535E+00  0.56092E+06  0.32680E+05 -0.16320E+06
                                    0.87523E+06  0.36845E+05 -0.15457E+06
    1     0.15235E+01 -0.15810E+00  0.38153E+05  0.41150E+05 -0.53962E+05
                                    0.14965E+06  0.17235E+05 -0.53766E+05
    1     0.16802E+01  0.39310E+00  0.30383E+06  0.50643E+05 -0.15111E+06
                                    0.64378E+06  0.12055E+05 -0.11796E+06
    2     0.23354E+01 -0.47662E+00  0.13833E+06  0.41603E+05 -0.77410E+05
                                    0.30584E+06  0.92665E+04 -0.57988E+05
    2     0.25198E+01  0.65565E-01  0.19396E+06  0.48537E+05 -0.10175E+06
                                    0.42281E+06  0.97730E+04 -0.74279E+05
    2     0.34563E+01 -0.91542E+00  0.19107E+06  0.41338E+05 -0.85864E+05
                                    0.37548E+06  0.85423E+04 -0.58701E+05
    2     0.36427E+01 -0.37470E+00  0.14921E+06  0.25487E+05 -0.69219E+05
                                    0.28879E+06 -0.18025E+04 -0.43487E+05
    3     0.42871E+01 -0.12265E+01  0.22859E+06  0.36204E+05 -0.86333E+05
                                    0.40203E+06  0.79051E+04 -0.57218E+05
    3     0.44586E+01 -0.68051E+00  0.11923E+06  0.16883E+05 -0.50423E+05
                                    0.20951E+06 -0.19222E+04 -0.31701E+05
    3     0.54415E+01 -0.15930E+01  0.25467E+06  0.25568E+05 -0.77620E+05
                                    0.39009E+06  0.60546E+04 -0.51649E+05
    3     0.55836E+01 -0.10385E+01  0.10079E+06  0.54559E+04 -0.34258E+05
                                    0.14993E+06 -0.49511E+04 -0.20575E+05
    4     0.62993E+01 -0.18153E+01  0.27278E+06  0.18451E+05 -0.66816E+05
                                    0.37623E+06  0.57794E+04 -0.44807E+05
    4     0.64159E+01 -0.12545E+01  0.88748E+05  0.14514E+04 -0.24924E+05
                                    0.11822E+06 -0.47383E+04 -0.15190E+05
    4     0.74839E+01 -0.20449E+01  0.29083E+06  0.96167E+04 -0.48175E+05
                                    0.35538E+06  0.48749E+04 -0.32625E+05
    4     0.75639E+01 -0.14774E+01  0.76150E+05 -0.31230E+04 -0.15160E+05
                                    0.88990E+05 -0.55940E+04 -0.93143E+04
    5     0.83591E+01 -0.21582E+01  0.29994E+06  0.50341E+04 -0.32355E+05
                                    0.34329E+06  0.44869E+04 -0.22071E+05
    5     0.84113E+01 -0.15872E+01  0.70189E+05 -0.47363E+04 -0.91409E+04
                                    0.75951E+05 -0.55883E+04 -0.56247E+04
    5     0.95595E+01 -0.22355E+01  0.30671E+06  0.17267E+04 -0.87933E+04
                                    0.33478E+06  0.41727E+04 -0.60015E+04
    5     0.95735E+01 -0.16623E+01  0.65383E+05 -0.59376E+04 -0.24501E+04
                                    0.66919E+05 -0.58143E+04 -0.15568E+04
  _____________________________________________________________________________


     Iteration No.  1     Error (root-mean-square value)=  0.1533E-01

     Iteration No.  2     Error (root-mean-square value)=  0.3524E-02

     Iteration No.  3     Error (root-mean-square value)=  0.8811E-03

     S O L U T I O N :


     LOAD, FS................................= -0.2700E+02
  __________________________________________________

     Node    x-coord.      y-coord.     U      V  
  __________________________________________________

       1   0.00000E+00   0.00000E+00   0.00000E+00   0.00000E+00
       2   0.91534E+00  -0.19493E+00  -0.84664E-01  -0.19493E+00
       3   0.18575E+01  -0.52759E+00  -0.14254E+00  -0.52759E+00
       4   0.28218E+01  -0.91642E+00  -0.17816E+00  -0.91642E+00
       5   0.38020E+01  -0.13031E+01  -0.19804E+00  -0.13031E+01
       6   0.48034E+01  -0.16547E+01  -0.19656E+00  -0.16547E+01
       7   0.58216E+01  -0.19531E+01  -0.17842E+00  -0.19531E+01
       8   0.68541E+01  -0.21897E+01  -0.14592E+00  -0.21897E+01
       9   0.78971E+01  -0.23601E+01  -0.10293E+00  -0.23601E+01
      10   0.89468E+01  -0.24630E+01  -0.53167E-01  -0.24630E+01
      11   0.10000E+02  -0.24972E+01   0.00000E+00  -0.24972E+01
      12   0.00000E+00   0.50000E+00   0.00000E+00   0.00000E+00
      13   0.10312E+01   0.29097E+00   0.31178E-01  -0.20903E+00
      14   0.20184E+01  -0.57347E-01   0.18414E-01  -0.55735E+00
      15   0.29876E+01  -0.44897E+00  -0.12384E-01  -0.94897E+00
      16   0.39569E+01  -0.83296E+00  -0.43129E-01  -0.13330E+01
      17   0.49368E+01  -0.11781E+01  -0.63243E-01  -0.16781E+01
      18   0.59300E+01  -0.14702E+01  -0.70004E-01  -0.19702E+01
      19   0.69357E+01  -0.17012E+01  -0.64263E-01  -0.22012E+01
      20   0.79514E+01  -0.18679E+01  -0.48555E-01  -0.23679E+01
      21   0.89740E+01  -0.19682E+01  -0.25996E-01  -0.24682E+01
      22   0.10000E+02  -0.20018E+01   0.00000E+00  -0.25018E+01
      23   0.00000E+00   0.10000E+01   0.00000E+00   0.00000E+00
      24   0.11170E+01   0.77351E+00   0.11705E+00  -0.22649E+00
      25   0.21705E+01   0.41519E+00   0.17055E+00  -0.58481E+00
      26   0.31538E+01   0.16648E-01   0.15380E+00  -0.98335E+00
      27   0.41188E+01  -0.36422E+00   0.11877E+00  -0.13642E+01
      28   0.50798E+01  -0.70307E+00   0.79780E-01  -0.17031E+01
      29   0.60485E+01  -0.98789E+00   0.48533E-01  -0.19879E+01
      30   0.70265E+01  -0.12125E+01   0.26473E-01  -0.22125E+01
      31   0.80126E+01  -0.13744E+01   0.12623E-01  -0.23744E+01
      32   0.90048E+01  -0.14716E+01   0.47996E-02  -0.24716E+01
      33   0.10000E+02  -0.15043E+01   0.00000E+00  -0.25043E+01
  __________________________________________________

  _____________________________________________________________________________

            x-coord.     y-coord.     SigmaXX     SigmaYY     SigmaXY
                                        SXX         SYY          SXY
  _____________________________________________________________________________

    1     0.41025E+00  0.14361E+00 -0.21610E+06 -0.62665E+04 -0.90581E+05
                                   -0.10503E+06 -0.19426E+05 -0.95121E+05
    1     0.46583E+00  0.71284E+00  0.57088E+06  0.34290E+05 -0.16921E+06
                                    0.90524E+06  0.38874E+05 -0.16063E+06
    1     0.15225E+01 -0.16842E+00  0.43551E+05  0.43560E+05 -0.56327E+05
                                    0.16280E+06  0.18180E+05 -0.55656E+05
    1     0.16825E+01  0.38174E+00  0.30683E+06  0.53943E+05 -0.15590E+06
                                    0.66670E+06  0.13358E+05 -0.12187E+06
    2     0.23334E+01 -0.49422E+00  0.14418E+06  0.44081E+05 -0.80925E+05
                                    0.32353E+06  0.98349E+04 -0.60255E+05
    2     0.25212E+01  0.46628E-01  0.19651E+06  0.50822E+05 -0.10455E+06
                                    0.43699E+06  0.10248E+05 -0.76072E+05
    2     0.34535E+01 -0.94173E+00  0.19641E+06  0.43424E+05 -0.89256E+05
                                    0.39213E+06  0.89670E+04 -0.60834E+05
    2     0.36425E+01 -0.40218E+00  0.15267E+06  0.26668E+05 -0.71545E+05
                                    0.29958E+06 -0.18938E+04 -0.44623E+05
    3     0.42840E+01 -0.12582E+01  0.23378E+06  0.37933E+05 -0.89393E+05
                                    0.41678E+06  0.83474E+04 -0.59206E+05
    3     0.44576E+01 -0.71303E+00  0.12321E+06  0.17779E+05 -0.52447E+05
                                    0.21873E+06 -0.19791E+04 -0.32754E+05
    3     0.54384E+01 -0.16304E+01  0.25994E+06  0.26749E+05 -0.80192E+05
                                    0.40222E+06  0.64266E+04 -0.53403E+05
    3     0.55821E+01 -0.10765E+01  0.10507E+06  0.58842E+04 -0.35911E+05
                                    0.15743E+06 -0.51115E+04 -0.21453E+05
    4     0.62966E+01 -0.18559E+01  0.27814E+06  0.19279E+05 -0.68962E+05
                                    0.38657E+06  0.61038E+04 -0.46315E+05
    4     0.64144E+01 -0.12955E+01  0.93199E+05  0.16820E+04 -0.26267E+05
                                    0.12478E+06 -0.48839E+04 -0.15934E+05
    4     0.74819E+01 -0.20888E+01  0.29654E+06  0.10069E+05 -0.49701E+05
                                    0.36405E+06  0.51494E+04 -0.33725E+05
    4     0.75626E+01 -0.15215E+01  0.80525E+05 -0.31256E+04 -0.16058E+05
                                    0.94386E+05 -0.57538E+04 -0.98309E+04
    5     0.83578E+01 -0.22036E+01  0.30581E+06  0.52791E+04 -0.33378E+05
                                    0.35108E+06  0.47167E+04 -0.22817E+05
    5     0.84105E+01 -0.16328E+01  0.74536E+05 -0.48452E+04 -0.97140E+04
                                    0.80812E+05 -0.57485E+04 -0.59584E+04
    5     0.95591E+01 -0.22820E+01  0.31275E+06  0.18333E+04 -0.90721E+04
                                    0.34200E+06  0.43781E+04 -0.62061E+04
    5     0.95733E+01 -0.17088E+01  0.69654E+05 -0.61187E+04 -0.26038E+04
                                    0.71377E+05 -0.59776E+04 -0.16482E+04
  _____________________________________________________________________________


     Iteration No.  1     Error (root-mean-square value)=  0.1472E-01

     Iteration No.  2     Error (root-mean-square value)=  0.3463E-02

     Iteration No.  3     Error (root-mean-square value)=  0.8829E-03

     S O L U T I O N :


     LOAD, FS................................= -0.2800E+02
  __________________________________________________

     Node    x-coord.      y-coord.     U      V  
  __________________________________________________

       1   0.00000E+00   0.00000E+00   0.00000E+00   0.00000E+00
       2   0.91372E+00  -0.20044E+00  -0.86275E-01  -0.20044E+00
       3   0.18547E+01  -0.54098E+00  -0.14534E+00  -0.54098E+00
       4   0.28184E+01  -0.93786E+00  -0.18165E+00  -0.93786E+00
       5   0.37982E+01  -0.13315E+01  -0.20184E+00  -0.13315E+01
       6   0.47998E+01  -0.16887E+01  -0.20025E+00  -0.16887E+01
       7   0.58183E+01  -0.19915E+01  -0.18168E+00  -0.19915E+01
       8   0.68515E+01  -0.22313E+01  -0.14854E+00  -0.22313E+01
       9   0.78952E+01  -0.24041E+01  -0.10475E+00  -0.24041E+01
      10   0.89459E+01  -0.25083E+01  -0.54101E-01  -0.25083E+01
      11   0.10000E+02  -0.25430E+01   0.00000E+00  -0.25430E+01
      12   0.00000E+00   0.50000E+00   0.00000E+00   0.00000E+00
      13   0.10322E+01   0.28472E+00   0.32205E-01  -0.21528E+00
      14   0.20185E+01  -0.71910E-01   0.18547E-01  -0.57191E+00
      15   0.29866E+01  -0.47148E+00  -0.13437E-01  -0.97148E+00
      16   0.39550E+01  -0.86215E+00  -0.45016E-01  -0.13622E+01
      17   0.49345E+01  -0.12127E+01  -0.65497E-01  -0.17127E+01
      18   0.59278E+01  -0.15090E+01  -0.72221E-01  -0.20090E+01
      19   0.69338E+01  -0.17431E+01  -0.66156E-01  -0.22431E+01
      20   0.79501E+01  -0.19120E+01  -0.49922E-01  -0.24120E+01
      21   0.89733E+01  -0.20136E+01  -0.26710E-01  -0.25136E+01
      22   0.10000E+02  -0.20476E+01   0.00000E+00  -0.25476E+01
      23   0.00000E+00   0.10000E+01   0.00000E+00   0.00000E+00
      24   0.11197E+01   0.76683E+00   0.11967E+00  -0.23317E+00
      25   0.21738E+01   0.39953E+00   0.17378E+00  -0.60047E+00
      26   0.31554E+01  -0.70343E-02   0.15543E+00  -0.10070E+01
      27   0.41190E+01  -0.39433E+00   0.11904E+00  -0.13943E+01
      28   0.50792E+01  -0.73830E+00   0.79210E-01  -0.17383E+01
      29   0.60476E+01  -0.10271E+01   0.47583E-01  -0.20271E+01
      30   0.70255E+01  -0.12546E+01   0.25509E-01  -0.22546E+01
      31   0.80119E+01  -0.14186E+01   0.11862E-01  -0.24186E+01
      32   0.90044E+01  -0.15171E+01   0.43876E-02  -0.25171E+01
      33   0.10000E+02  -0.15502E+01   0.00000E+00  -0.25502E+01
  __________________________________________________

  _____________________________________________________________________________

            x-coord.     y-coord.     SigmaXX     SigmaYY     SigmaXY
                                        SXX         SYY          SXY
  _____________________________________________________________________________

    1     0.41019E+00  0.14140E+00 -0.21707E+06 -0.58768E+04 -0.94142E+05
                                   -0.98881E+05 -0.19883E+05 -0.98636E+05
    1     0.46698E+00  0.71034E+00  0.58048E+06  0.35927E+05 -0.17518E+06
                                    0.93540E+06  0.40955E+05 -0.16669E+06
    1     0.15216E+01 -0.17865E+00  0.48937E+05  0.46021E+05 -0.58707E+05
                                    0.17621E+06  0.19146E+05 -0.57545E+05
    1     0.16847E+01  0.37047E+00  0.30961E+06  0.57298E+05 -0.16061E+06
                                    0.68976E+06  0.14703E+05 -0.12575E+06
    2     0.23314E+01 -0.51163E+00  0.14990E+06  0.46603E+05 -0.84449E+05
                                    0.34146E+06  0.10421E+05 -0.62523E+05
    2     0.25224E+01  0.27878E-01  0.19898E+06  0.53116E+05 -0.10732E+06
                                    0.45120E+06  0.10725E+05 -0.77822E+05
    2     0.34506E+01 -0.96770E+00  0.20161E+06  0.45530E+05 -0.92632E+05
                                    0.40885E+06  0.94065E+04 -0.62960E+05
    2     0.36422E+01 -0.42930E+00  0.15608E+06  0.27865E+05 -0.73873E+05
                                    0.31045E+06 -0.19797E+04 -0.45753E+05
    3     0.42809E+01 -0.12893E+01  0.23880E+06  0.39674E+05 -0.92425E+05
                                    0.43149E+06  0.88031E+04 -0.61186E+05
    3     0.44566E+01 -0.74508E+00  0.12716E+06  0.18694E+05 -0.54486E+05
                                    0.22803E+06 -0.20293E+04 -0.33815E+05
    3     0.54354E+01 -0.16672E+01  0.26506E+06  0.27940E+05 -0.82741E+05
                                    0.41426E+06  0.68091E+04 -0.55152E+05
    3     0.55807E+01 -0.11139E+01  0.10932E+06  0.63298E+04 -0.37581E+05
                                    0.16498E+06 -0.52652E+04 -0.22343E+05
    4     0.62939E+01 -0.18960E+01  0.28335E+06  0.20112E+05 -0.71091E+05
                                    0.39681E+06  0.64356E+04 -0.47820E+05
    4     0.64130E+01 -0.13359E+01  0.97598E+05  0.19241E+04 -0.27623E+05
                                    0.13135E+06 -0.50247E+04 -0.16688E+05
    4     0.74799E+01 -0.21320E+01  0.30210E+06  0.10526E+05 -0.51218E+05
                                    0.37260E+06  0.54278E+04 -0.34825E+05
    4     0.75614E+01 -0.15649E+01  0.84844E+05 -0.31223E+04 -0.16964E+05
                                    0.99757E+05 -0.59103E+04 -0.10354E+05
    5     0.83565E+01 -0.22482E+01  0.31155E+06  0.55264E+04 -0.34396E+05
                                    0.35874E+06  0.49487E+04 -0.23564E+05
    5     0.84096E+01 -0.16776E+01  0.78821E+05 -0.49512E+04 -0.10292E+05
                                    0.85629E+05 -0.59063E+04 -0.62961E+04
    5     0.95588E+01 -0.23277E+01  0.31867E+06  0.19405E+04 -0.93499E+04
                                    0.34909E+06  0.45840E+04 -0.64111E+04
    5     0.95731E+01 -0.17546E+01  0.73859E+05 -0.62988E+04 -0.27586E+04
                                    0.75778E+05 -0.61391E+04 -0.17406E+04
  _____________________________________________________________________________


     Iteration No.  1     Error (root-mean-square value)=  0.1415E-01

     Iteration No.  2     Error (root-mean-square value)=  0.3405E-02

     Iteration No.  3     Error (root-mean-square value)=  0.8845E-03

     S O L U T I O N :


     LOAD, FS................................= -0.2900E+02
  __________________________________________________

     Node    x-coord.      y-coord.     U      V  
  __________________________________________________

       1   0.00000E+00   0.00000E+00   0.00000E+00   0.00000E+00
       2   0.91215E+00  -0.20593E+00  -0.87847E-01  -0.20593E+00
       3   0.18519E+01  -0.55425E+00  -0.14809E+00  -0.55425E+00
       4   0.28149E+01  -0.95906E+00  -0.18507E+00  -0.95906E+00
       5   0.37944E+01  -0.13595E+01  -0.20555E+00  -0.13595E+01
       6   0.47961E+01  -0.17223E+01  -0.20386E+00  -0.17223E+01
       7   0.58151E+01  -0.20293E+01  -0.18488E+00  -0.20293E+01
       8   0.68489E+01  -0.22724E+01  -0.15112E+00  -0.22724E+01
       9   0.78935E+01  -0.24474E+01  -0.10654E+00  -0.24474E+01
      10   0.89450E+01  -0.25529E+01  -0.55017E-01  -0.25529E+01
      11   0.10000E+02  -0.25880E+01   0.00000E+00  -0.25880E+01
      12   0.00000E+00   0.50000E+00   0.00000E+00   0.00000E+00
      13   0.10332E+01   0.27850E+00   0.33229E-01  -0.22150E+00
      14   0.20187E+01  -0.86351E-01   0.18665E-01  -0.58635E+00
      15   0.29855E+01  -0.49375E+00  -0.14497E-01  -0.99375E+00
      16   0.39531E+01  -0.89096E+00  -0.46890E-01  -0.13910E+01
      17   0.49323E+01  -0.12467E+01  -0.67723E-01  -0.17467E+01
      18   0.59256E+01  -0.15471E+01  -0.74407E-01  -0.20471E+01
      19   0.69320E+01  -0.17844E+01  -0.68019E-01  -0.22844E+01
      20   0.79487E+01  -0.19554E+01  -0.51267E-01  -0.24554E+01
      21   0.89726E+01  -0.20583E+01  -0.27412E-01  -0.25583E+01
      22   0.10000E+02  -0.20927E+01   0.00000E+00  -0.25927E+01
      23   0.00000E+00   0.10000E+01   0.00000E+00   0.00000E+00
      24   0.11223E+01   0.76019E+00   0.12226E+00  -0.23981E+00
      25   0.21770E+01   0.38399E+00   0.17695E+00  -0.61601E+00
      26   0.31570E+01  -0.30458E-01   0.15698E+00  -0.10305E+01
      27   0.41193E+01  -0.42405E+00   0.11926E+00  -0.14240E+01
      28   0.50786E+01  -0.77301E+00   0.78615E-01  -0.17730E+01
      29   0.60466E+01  -0.10657E+01   0.46626E-01  -0.20657E+01
      30   0.70245E+01  -0.12962E+01   0.24548E-01  -0.22962E+01
      31   0.80111E+01  -0.14623E+01   0.11108E-01  -0.24623E+01
      32   0.90040E+01  -0.15620E+01   0.39799E-02  -0.25620E+01
      33   0.10000E+02  -0.15955E+01   0.00000E+00  -0.25955E+01
  __________________________________________________

  _____________________________________________________________________________

            x-coord.     y-coord.     SigmaXX     SigmaYY     SigmaXY
                                        SXX         SYY          SXY
  _____________________________________________________________________________

    1     0.41015E+00  0.13919E+00 -0.21790E+06 -0.54489E+04 -0.97728E+05
                                   -0.92349E+05 -0.20322E+05 -0.10216E+06
    1     0.46812E+00  0.70785E+00  0.58973E+06  0.37593E+05 -0.18111E+06
                                    0.96570E+06  0.43088E+05 -0.17274E+06
    1     0.15206E+01 -0.18881E+00  0.54306E+05  0.48530E+05 -0.61102E+05
                                    0.18987E+06  0.20131E+05 -0.59433E+05
    1     0.16870E+01  0.35926E+00  0.31218E+06  0.60705E+05 -0.16524E+06
                                    0.71297E+06  0.16088E+05 -0.12959E+06
    2     0.23294E+01 -0.52888E+00  0.15550E+06  0.49171E+05 -0.87981E+05
                                    0.35962E+06  0.11025E+05 -0.64793E+05
    2     0.25236E+01  0.93047E-02  0.20137E+06  0.55419E+05 -0.11005E+06
                                    0.46546E+06  0.11205E+05 -0.79529E+05
    2     0.34478E+01 -0.99335E+00  0.20665E+06  0.47657E+05 -0.95988E+05
                                    0.42562E+06  0.98613E+04 -0.65079E+05
    2     0.36420E+01 -0.45609E+00  0.15944E+06  0.29080E+05 -0.76206E+05
                                    0.32141E+06 -0.20597E+04 -0.46879E+05
    3     0.42778E+01 -0.13201E+01  0.24367E+06  0.41428E+05 -0.95431E+05
                                    0.44616E+06  0.92720E+04 -0.63157E+05
    3     0.44556E+01 -0.77669E+00  0.13107E+06  0.19631E+05 -0.56539E+05
                                    0.23743E+06 -0.20725E+04 -0.34885E+05
    3     0.54325E+01 -0.17036E+01  0.27003E+06  0.29139E+05 -0.85268E+05
                                    0.42622E+06  0.72020E+04 -0.56894E+05
    3     0.55792E+01 -0.11507E+01  0.11351E+06  0.67925E+04 -0.39266E+05
                                    0.17258E+06 -0.54121E+04 -0.23243E+05
    4     0.62913E+01 -0.19354E+01  0.28843E+06  0.20953E+05 -0.73205E+05
                                    0.40696E+06  0.67749E+04 -0.49322E+05
    4     0.64115E+01 -0.13757E+01  0.10195E+06  0.21775E+04 -0.28990E+05
                                    0.13793E+06 -0.51607E+04 -0.17451E+05
    4     0.74780E+01 -0.21745E+01  0.30753E+06  0.10986E+05 -0.52728E+05
                                    0.38105E+06  0.57102E+04 -0.35924E+05
    4     0.75602E+01 -0.16076E+01  0.89105E+05 -0.31134E+04 -0.17876E+05
                                    0.10510E+06 -0.60636E+04 -0.10883E+05
    5     0.83552E+01 -0.22922E+01  0.31717E+06  0.57758E+04 -0.35410E+05
                                    0.36628E+06  0.51826E+04 -0.24311E+05
    5     0.84088E+01 -0.17218E+01  0.83044E+05 -0.50544E+04 -0.10874E+05
                                    0.90400E+05 -0.60618E+04 -0.66376E+04
    5     0.95584E+01 -0.23727E+01  0.32446E+06  0.20483E+04 -0.96269E+04
                                    0.35606E+06  0.47904E+04 -0.66163E+04
    5     0.95728E+01 -0.17998E+01  0.78000E+05 -0.64780E+04 -0.29143E+04
                                    0.80122E+05 -0.62990E+04 -0.18338E+04
  _____________________________________________________________________________


     Iteration No.  1     Error (root-mean-square value)=  0.1363E-01

     Iteration No.  2     Error (root-mean-square value)=  0.3349E-02

     Iteration No.  3     Error (root-mean-square value)=  0.8858E-03

     S O L U T I O N :


     LOAD, FS................................= -0.3000E+02
  __________________________________________________

     Node    x-coord.      y-coord.     U      V  
  __________________________________________________

       1   0.00000E+00   0.00000E+00   0.00000E+00   0.00000E+00
       2   0.91062E+00  -0.21138E+00  -0.89379E-01  -0.21138E+00
       3   0.18492E+01  -0.56741E+00  -0.15078E+00  -0.56741E+00
       4   0.28116E+01  -0.98004E+00  -0.18842E+00  -0.98004E+00
       5   0.37908E+01  -0.13872E+01  -0.20920E+00  -0.13872E+01
       6   0.47926E+01  -0.17553E+01  -0.20741E+00  -0.17553E+01
       7   0.58120E+01  -0.20666E+01  -0.18802E+00  -0.20666E+01
       8   0.68464E+01  -0.23128E+01  -0.15364E+00  -0.23128E+01
       9   0.78917E+01  -0.24901E+01  -0.10830E+00  -0.24901E+01
      10   0.89441E+01  -0.25969E+01  -0.55916E-01  -0.25969E+01
      11   0.10000E+02  -0.26324E+01   0.00000E+00  -0.26324E+01
      12   0.00000E+00   0.50000E+00   0.00000E+00   0.00000E+00
      13   0.10343E+01   0.27229E+00   0.34251E-01  -0.22771E+00
      14   0.20188E+01  -0.10068E+00   0.18770E-01  -0.60068E+00
      15   0.29844E+01  -0.51577E+00  -0.15562E-01  -0.10158E+01
      16   0.39513E+01  -0.91940E+00  -0.48750E-01  -0.14194E+01
      17   0.49301E+01  -0.12803E+01  -0.69922E-01  -0.17803E+01
      18   0.59234E+01  -0.15847E+01  -0.76560E-01  -0.20847E+01
      19   0.69301E+01  -0.18250E+01  -0.69854E-01  -0.23250E+01
      20   0.79474E+01  -0.19982E+01  -0.52591E-01  -0.24982E+01
      21   0.89719E+01  -0.21024E+01  -0.28103E-01  -0.26024E+01
      22   0.10000E+02  -0.21372E+01   0.00000E+00  -0.26372E+01
      23   0.00000E+00   0.10000E+01   0.00000E+00   0.00000E+00
      24   0.11248E+01   0.75359E+00   0.12482E+00  -0.24641E+00
      25   0.21801E+01   0.36856E+00   0.18006E+00  -0.63144E+00
      26   0.31585E+01  -0.53637E-01   0.15845E+00  -0.10536E+01
      27   0.41194E+01  -0.45338E+00   0.11943E+00  -0.14534E+01
      28   0.50780E+01  -0.80726E+00   0.77996E-01  -0.18073E+01
      29   0.60457E+01  -0.11038E+01   0.45667E-01  -0.21038E+01
      30   0.70236E+01  -0.13371E+01   0.23592E-01  -0.23371E+01
      31   0.80104E+01  -0.15052E+01   0.10360E-01  -0.25052E+01
      32   0.90036E+01  -0.16061E+01   0.35767E-02  -0.26061E+01
      33   0.10000E+02  -0.16400E+01   0.00000E+00  -0.26400E+01
  __________________________________________________

  _____________________________________________________________________________

            x-coord.     y-coord.     SigmaXX     SigmaYY     SigmaXY
                                        SXX         SYY          SXY
  _____________________________________________________________________________

    1     0.41012E+00  0.13698E+00 -0.21860E+06 -0.49828E+04 -0.10134E+06
                                   -0.85436E+05 -0.20741E+05 -0.10570E+06
    1     0.46926E+00  0.70536E+00  0.59864E+06  0.39286E+05 -0.18700E+06
                                    0.99616E+06  0.45273E+05 -0.17880E+06
    1     0.15197E+01 -0.19891E+00  0.59654E+05  0.51088E+05 -0.63511E+05
                                    0.20378E+06  0.21136E+05 -0.61321E+05
    1     0.16891E+01  0.34812E+00  0.31456E+06  0.64163E+05 -0.16981E+06
                                    0.73634E+06  0.17514E+05 -0.13340E+06
    2     0.23274E+01 -0.54596E+00  0.16097E+06  0.51781E+05 -0.91518E+05
                                    0.37802E+06  0.11647E+05 -0.67065E+05
    2     0.25248E+01 -0.91023E-02  0.20369E+06  0.57730E+05 -0.11273E+06
                                    0.47978E+06  0.11689E+05 -0.81196E+05
    2     0.34451E+01 -0.10187E+01  0.21155E+06  0.49804E+05 -0.99326E+05
                                    0.44246E+06  0.10332E+05 -0.67190E+05
    2     0.36417E+01 -0.48256E+00  0.16275E+06  0.30312E+05 -0.78544E+05
                                    0.33247E+06 -0.21330E+04 -0.48002E+05
    3     0.42748E+01 -0.13505E+01  0.24838E+06  0.43194E+05 -0.98410E+05
                                    0.46080E+06  0.97541E+04 -0.65121E+05
    3     0.44546E+01 -0.80789E+00  0.13495E+06  0.20587E+05 -0.58608E+05
                                    0.24692E+06 -0.21084E+04 -0.35962E+05
    3     0.54296E+01 -0.17394E+01  0.27485E+06  0.30347E+05 -0.87774E+05
                                    0.43811E+06  0.76053E+04 -0.58631E+05
    3     0.55777E+01 -0.11871E+01  0.11767E+06  0.72720E+04 -0.40966E+05
                                    0.18023E+06 -0.55520E+04 -0.24155E+05
    4     0.62887E+01 -0.19742E+01  0.29337E+06  0.21801E+05 -0.75304E+05
                                    0.41702E+06  0.71215E+04 -0.50822E+05
    4     0.64100E+01 -0.14149E+01  0.10624E+06  0.24420E+04 -0.30369E+05
                                    0.14452E+06 -0.52920E+04 -0.18223E+05
    4     0.74761E+01 -0.22164E+01  0.31284E+06  0.11451E+05 -0.54229E+05
                                    0.38939E+06  0.59963E+04 -0.37023E+05
    4     0.75591E+01 -0.16498E+01  0.93310E+05 -0.30990E+04 -0.18795E+05
                                    0.11042E+06 -0.62138E+04 -0.11417E+05
    5     0.83539E+01 -0.23356E+01  0.32266E+06  0.60274E+04 -0.36420E+05
                                    0.37372E+06  0.54185E+04 -0.25058E+05
    5     0.84080E+01 -0.17653E+01  0.87206E+05 -0.51549E+04 -0.11459E+05
                                    0.95127E+05 -0.62150E+04 -0.69826E+04
    5     0.95580E+01 -0.24171E+01  0.33014E+06  0.21566E+04 -0.99031E+04
                                    0.36291E+06  0.49971E+04 -0.68220E+04
    5     0.95726E+01 -0.18442E+01  0.82077E+05 -0.66565E+04 -0.30709E+04
                                    0.84411E+05 -0.64572E+04 -0.19278E+04
  _____________________________________________________________________________


     Iteration No.  1     Error (root-mean-square value)=  0.1314E-01

     Iteration No.  2     Error (root-mean-square value)=  0.3296E-02

     Iteration No.  3     Error (root-mean-square value)=  0.8870E-03

     S O L U T I O N :


     LOAD, FS................................= -0.3100E+02
  __________________________________________________

     Node    x-coord.      y-coord.     U      V  
  __________________________________________________

       1   0.00000E+00   0.00000E+00   0.00000E+00   0.00000E+00
       2   0.90913E+00  -0.21681E+00  -0.90874E-01  -0.21681E+00
       3   0.18466E+01  -0.58046E+00  -0.15343E+00  -0.58046E+00
       4   0.28083E+01  -0.10008E+01  -0.19172E+00  -0.10008E+01
       5   0.37872E+01  -0.14145E+01  -0.21277E+00  -0.14145E+01
       6   0.47891E+01  -0.17880E+01  -0.21089E+00  -0.17880E+01
       7   0.58089E+01  -0.21034E+01  -0.19110E+00  -0.21034E+01
       8   0.68439E+01  -0.23527E+01  -0.15612E+00  -0.23527E+01
       9   0.78900E+01  -0.25321E+01  -0.11002E+00  -0.25321E+01
      10   0.89432E+01  -0.26403E+01  -0.56799E-01  -0.26403E+01
      11   0.10000E+02  -0.26762E+01   0.00000E+00  -0.26762E+01
      12   0.00000E+00   0.50000E+00   0.00000E+00   0.00000E+00
      13   0.10353E+01   0.26611E+00   0.35270E-01  -0.23389E+00
      14   0.20189E+01  -0.11489E+00   0.18862E-01  -0.61489E+00
      15   0.29834E+01  -0.53758E+00  -0.16632E-01  -0.10376E+01
      16   0.39494E+01  -0.94750E+00  -0.50594E-01  -0.14475E+01
      17   0.49279E+01  -0.13135E+01  -0.72094E-01  -0.18135E+01
      18   0.59213E+01  -0.16218E+01  -0.78683E-01  -0.21218E+01
      19   0.69283E+01  -0.18651E+01  -0.71661E-01  -0.23651E+01
      20   0.79461E+01  -0.20404E+01  -0.53894E-01  -0.25404E+01
      21   0.89712E+01  -0.21458E+01  -0.28784E-01  -0.26458E+01
      22   0.10000E+02  -0.21811E+01   0.00000E+00  -0.26811E+01
      23   0.00000E+00   0.10000E+01   0.00000E+00   0.00000E+00
      24   0.11274E+01   0.74701E+00   0.12736E+00  -0.25299E+00
      25   0.21831E+01   0.35322E+00   0.18312E+00  -0.64678E+00
      26   0.31599E+01  -0.76586E-01   0.15986E+00  -0.10766E+01
      27   0.41196E+01  -0.48237E+00   0.11955E+00  -0.14824E+01
      28   0.50774E+01  -0.84105E+00   0.77359E-01  -0.18411E+01
      29   0.60447E+01  -0.11413E+01   0.44705E-01  -0.21413E+01
      30   0.70226E+01  -0.13775E+01   0.22642E-01  -0.23775E+01
      31   0.80096E+01  -0.15476E+01   0.96201E-02  -0.25476E+01
      32   0.90032E+01  -0.16497E+01   0.31781E-02  -0.26497E+01
      33   0.10000E+02  -0.16840E+01   0.00000E+00  -0.26840E+01
  __________________________________________________

  _____________________________________________________________________________

            x-coord.     y-coord.     SigmaXX     SigmaYY     SigmaXY
                                        SXX         SYY          SXY
  _____________________________________________________________________________

    1     0.41010E+00  0.13477E+00 -0.21917E+06 -0.44784E+04 -0.10498E+06
                                   -0.78144E+05 -0.21140E+05 -0.10925E+06
    1     0.47039E+00  0.70287E+00  0.60724E+06  0.41005E+05 -0.19286E+06
                                    0.10268E+07  0.47508E+05 -0.18485E+06
    1     0.15188E+01 -0.20894E+00  0.64977E+05  0.53693E+05 -0.65933E+05
                                    0.21793E+06  0.22160E+05 -0.63208E+05
    1     0.16913E+01  0.33705E+00  0.31676E+06  0.67669E+05 -0.17431E+06
                                    0.75987E+06  0.18978E+05 -0.13718E+06
    2     0.23255E+01 -0.56288E+00  0.16632E+06  0.54433E+05 -0.95059E+05
                                    0.39665E+06  0.12289E+05 -0.69337E+05
    2     0.25259E+01 -0.27352E-01  0.20595E+06  0.60049E+05 -0.11538E+06
                                    0.49415E+06  0.12175E+05 -0.82825E+05
    2     0.34424E+01 -0.10438E+01  0.21631E+06  0.51971E+05 -0.10264E+06
                                    0.45936E+06  0.10818E+05 -0.69294E+05
    2     0.36413E+01 -0.50874E+00  0.16602E+06  0.31562E+05 -0.80886E+05
                                    0.34362E+06 -0.21990E+04 -0.49122E+05
    3     0.42719E+01 -0.13804E+01  0.25295E+06  0.44972E+05 -0.10136E+06
                                    0.47541E+06  0.10249E+05 -0.67076E+05
    3     0.44536E+01 -0.83869E+00  0.13878E+06  0.21564E+05 -0.60690E+05
                                    0.25651E+06 -0.21367E+04 -0.37047E+05
    3     0.54267E+01 -0.17747E+01  0.27954E+06  0.31564E+05 -0.90260E+05
                                    0.44993E+06  0.80187E+04 -0.60364E+05
    3     0.55763E+01 -0.12229E+01  0.12178E+06  0.77683E+04 -0.42680E+05
                                    0.18792E+06 -0.56848E+04 -0.25076E+05
    4     0.62862E+01 -0.20125E+01  0.29818E+06  0.22655E+05 -0.77390E+05
                                    0.42700E+06  0.74753E+04 -0.52319E+05
    4     0.64086E+01 -0.14536E+01  0.11049E+06  0.27173E+04 -0.31758E+05
                                    0.15112E+06 -0.54185E+04 -0.19003E+05
    4     0.74742E+01 -0.22577E+01  0.31803E+06  0.11919E+05 -0.55724E+05
                                    0.39764E+06  0.62862E+04 -0.38122E+05
    4     0.75579E+01 -0.16913E+01  0.97459E+05 -0.30793E+04 -0.19721E+05
                                    0.11571E+06 -0.63609E+04 -0.11957E+05
    5     0.83527E+01 -0.23784E+01  0.32804E+06  0.62812E+04 -0.37426E+05
                                    0.38106E+06  0.56564E+04 -0.25807E+05
    5     0.84072E+01 -0.18082E+01  0.91307E+05 -0.52528E+04 -0.12049E+05
                                    0.99810E+05 -0.63660E+04 -0.73309E+04
    5     0.95577E+01 -0.24608E+01  0.33571E+06  0.22654E+04 -0.10179E+05
                                    0.36966E+06  0.52040E+04 -0.70281E+04
    5     0.95724E+01 -0.18881E+01  0.86092E+05 -0.68341E+04 -0.32281E+04
                                    0.88643E+05 -0.66140E+04 -0.20225E+04
  _____________________________________________________________________________


     Iteration No.  1     Error (root-mean-square value)=  0.1269E-01

     Iteration No.  2     Error (root-mean-square value)=  0.3245E-02

     Iteration No.  3     Error (root-mean-square value)=  0.8881E-03

     S O L U T I O N :


     LOAD, FS................................= -0.3200E+02
  __________________________________________________

     Node    x-coord.      y-coord.     U      V  
  __________________________________________________

       1   0.00000E+00   0.00000E+00   0.00000E+00   0.00000E+00
       2   0.90767E+00  -0.22221E+00  -0.92333E-01  -0.22221E+00
       3   0.18440E+01  -0.59341E+00  -0.15603E+00  -0.59341E+00
       4   0.28050E+01  -0.10214E+01  -0.19495E+00  -0.10214E+01
       5   0.37837E+01  -0.14416E+01  -0.21628E+00  -0.14416E+01
       6   0.47857E+01  -0.18202E+01  -0.21430E+00  -0.18202E+01
       7   0.58059E+01  -0.21397E+01  -0.19412E+00  -0.21397E+01
       8   0.68414E+01  -0.23921E+01  -0.15856E+00  -0.23921E+01
       9   0.78883E+01  -0.25737E+01  -0.11171E+00  -0.25737E+01
      10   0.89423E+01  -0.26831E+01  -0.57666E-01  -0.26831E+01
      11   0.10000E+02  -0.27195E+01   0.00000E+00  -0.27195E+01
      12   0.00000E+00   0.50000E+00   0.00000E+00   0.00000E+00
      13   0.10363E+01   0.25995E+00   0.36288E-01  -0.24005E+00
      14   0.20189E+01  -0.12901E+00   0.18942E-01  -0.62901E+00
      15   0.29823E+01  -0.55917E+00  -0.17704E-01  -0.10592E+01
      16   0.39476E+01  -0.97528E+00  -0.52423E-01  -0.14753E+01
      17   0.49258E+01  -0.13462E+01  -0.74238E-01  -0.18462E+01
      18   0.59192E+01  -0.16585E+01  -0.80776E-01  -0.21585E+01
      19   0.69266E+01  -0.19047E+01  -0.73441E-01  -0.24047E+01
      20   0.79448E+01  -0.20821E+01  -0.55178E-01  -0.25821E+01
      21   0.89705E+01  -0.21887E+01  -0.29453E-01  -0.26887E+01
      22   0.10000E+02  -0.22244E+01   0.00000E+00  -0.27244E+01
      23   0.00000E+00   0.10000E+01   0.00000E+00   0.00000E+00
      24   0.11299E+01   0.74046E+00   0.12987E+00  -0.25954E+00
      25   0.21861E+01   0.33798E+00   0.18613E+00  -0.66202E+00
      26   0.31612E+01  -0.99316E-01   0.16121E+00  -0.10993E+01
      27   0.41196E+01  -0.51101E+00   0.11963E+00  -0.15110E+01
      28   0.50767E+01  -0.87443E+00   0.76705E-01  -0.18744E+01
      29   0.60437E+01  -0.11784E+01   0.43744E-01  -0.21784E+01
      30   0.70217E+01  -0.14174E+01   0.21700E-01  -0.24174E+01
      31   0.80089E+01  -0.15895E+01   0.88881E-02  -0.25895E+01
      32   0.90028E+01  -0.16927E+01   0.27843E-02  -0.26927E+01
      33   0.10000E+02  -0.17274E+01   0.00000E+00  -0.27274E+01
  __________________________________________________

  _____________________________________________________________________________

            x-coord.     y-coord.     SigmaXX     SigmaYY     SigmaXY
                                        SXX         SYY          SXY
  _____________________________________________________________________________

    1     0.41008E+00  0.13257E+00 -0.21962E+06 -0.39357E+04 -0.10865E+06
                                   -0.70476E+05 -0.21519E+05 -0.11281E+06
    1     0.47151E+00  0.70038E+00  0.61552E+06  0.42751E+05 -0.19867E+06
                                    0.10576E+07  0.49794E+05 -0.19091E+06
    1     0.15179E+01 -0.21891E+00  0.70270E+05  0.56344E+05 -0.68366E+05
                                    0.23233E+06  0.23203E+05 -0.65095E+05
    1     0.16934E+01  0.32604E+00  0.31878E+06  0.71221E+05 -0.17873E+06
                                    0.78356E+06  0.20481E+05 -0.14093E+06
    2     0.23236E+01 -0.57966E+00  0.17155E+06  0.57126E+05 -0.98602E+05
                                    0.41552E+06  0.12949E+05 -0.71609E+05
    2     0.25270E+01 -0.45452E-01  0.20816E+06  0.62376E+05 -0.11800E+06
                                    0.50859E+06  0.12665E+05 -0.84417E+05
    2     0.34397E+01 -0.10686E+01  0.22094E+06  0.54156E+05 -0.10594E+06
                                    0.47632E+06  0.11321E+05 -0.71391E+05
    2     0.36410E+01 -0.53463E+00  0.16925E+06  0.32831E+05 -0.83234E+05
                                    0.35487E+06 -0.22572E+04 -0.50241E+05
    3     0.42690E+01 -0.14101E+01  0.25739E+06  0.46762E+05 -0.10429E+06
                                    0.49000E+06  0.10758E+05 -0.69025E+05
    3     0.44525E+01 -0.86912E+00  0.14258E+06  0.22562E+05 -0.62786E+05
                                    0.26619E+06 -0.21572E+04 -0.38140E+05
    3     0.54239E+01 -0.18096E+01  0.28410E+06  0.32790E+05 -0.92726E+05
                                    0.46169E+06  0.84423E+04 -0.62091E+05
    3     0.55748E+01 -0.12583E+01  0.12585E+06  0.82810E+04 -0.44406E+05
                                    0.19566E+06 -0.58104E+04 -0.26008E+05
    4     0.62837E+01 -0.20504E+01  0.30287E+06  0.23517E+05 -0.79462E+05
                                    0.43690E+06  0.78363E+04 -0.53814E+05
    4     0.64072E+01 -0.14918E+01  0.11468E+06  0.30034E+04 -0.33156E+05
                                    0.15774E+06 -0.55401E+04 -0.19791E+05
    4     0.74724E+01 -0.22985E+01  0.32311E+06  0.12391E+05 -0.57212E+05
                                    0.40580E+06  0.65798E+04 -0.39221E+05
    4     0.75567E+01 -0.17323E+01  0.10155E+06 -0.30545E+04 -0.20652E+05
                                    0.12098E+06 -0.65051E+04 -0.12502E+05
    5     0.83514E+01 -0.24206E+01  0.33332E+06  0.65370E+04 -0.38430E+05
                                    0.38830E+06  0.58960E+04 -0.26556E+05
    5     0.84064E+01 -0.18506E+01  0.95348E+05 -0.53482E+04 -0.12641E+05
                                    0.10445E+06 -0.65150E+04 -0.76822E+04
    5     0.95574E+01 -0.25040E+01  0.34118E+06  0.23747E+04 -0.10454E+05
                                    0.37630E+06  0.54113E+04 -0.72346E+04
    5     0.95721E+01 -0.19314E+01  0.90044E+05 -0.70111E+04 -0.33861E+04
                                    0.92821E+05 -0.67693E+04 -0.21178E+04
  _____________________________________________________________________________

